pymatgen generated KPOINTS with grid density = 1074 / atom
0
Monkhorst
9 9 9

