fcc_Fe_CON_333                          
   1.00000000000000     
    10.3348470473793466    0.0000000000000000    0.0000000000000000
     0.0000000000000000   10.3348470473793466    0.0000000000000000
     0.0000000000000000    0.0000000000000000   10.3348470473793466
   Fe
   107
Selective Dynamics
Direct
  0.9998340890348771  0.9999999884308082  0.0000004915543812 F F F
  0.9997470335890384  0.1664149526800855  0.1664166924036223 F F F
  0.0001933034429200  0.3337671501134452  0.0000005098987401 F F F
  0.0019949163754518  0.5000000071023862  0.1686627828994531 F F F
  0.0001932897340851  0.6662328824158834  0.0000004876569477 F F F
  0.9997469953441964  0.8335851631839688  0.1664167210487264 F F F
  0.0001933132125345  0.9999999938695936  0.3337684265271292 F F F
  0.0019948732527340  0.1686609068638703  0.4999997527755013 F F F
  0.9998883929204183  0.3331918689867805  0.3331931135365309 F F F
  0.0018371393373826  0.4999999188431801  0.4999995826138459 F F F
  0.9998884041762537  0.6668081934578609  0.3331931338164082 F F F
  0.0019949671592627  0.8313390363968978  0.4999996493981982 F F F
  0.0001933244045134  0.9999999806121522  0.6662313045334258 F F F
  0.9997470793156324  0.1664149802365031  0.8335838788228571 F F F
  0.9998883844291910  0.3331918681495267  0.6668065983027205 F F F
  0.0019949683588862  0.5000000213113864  0.8313378769936008 F F F
  0.9998883900364177  0.6668082010810394  0.6668065867497432 F F F
  0.9997469980263247  0.8335850992245426  0.8335838624237368 F F F
  0.1671005820489455  0.0000000213946478  0.1668627537304914 F F F
  0.1671006069254730  0.1668610014211609  0.0000005109778627 F F F
  0.1671006075072370  0.8331390946538733  0.0000004794689801 F F F
  0.1676426454799653  0.3343057058728505  0.4999985966785516 F F F
  0.1676425150329663  0.5000010691313648  0.3343071615463415 F F F
  0.1676427245981600  0.6656943500609955  0.4999985535423832 F F F
  0.1671006107176467  0.0000000030526763  0.8331378440029837 F F F
  0.1676428807071559  0.5000000317754072  0.6656916591365487 F F F
  0.1665258764658546  0.3331912347563701  0.1665577714149364 F F F
  0.1665258695460068  0.6668087802199452  0.1665577853529356 F F F
  0.1665259440778470  0.1665560092983256  0.3331925760180567 F F F
  0.1665259747136858  0.8334440280787803  0.3331926041083904 F F F
  0.1665259300836368  0.1665559354864428  0.6668071429537648 F F F
  0.1665258743362017  0.3331912248943070  0.8334428513524514 F F F
  0.1665258948051331  0.6668088087293356  0.8334428206544970 F F F
  0.1665259616366441  0.8334440824396836  0.6668071232963086 F F F
  0.1671247470172048  0.5000000106510427  0.0000004399743005 F F F
  0.1671248237220766  0.9999999750703807  0.4999996578910881 F F F
  0.3333345512142785  0.0000000106210507  0.0000005095381113 F F F
  0.3333353717672765  0.1686596967804022  0.1686615451169828 F F F
  0.3333353471214053  0.8313404000921452  0.1686614435728089 F F F
  0.3333310869042236  0.3343054199214848  0.3343070484329331 F F F
  0.3333309970245963  0.6656945996148025  0.3343070021567556 F F F
  0.3333353419350189  0.1686596917568295  0.8313391738027605 F F F
  0.3333310364812405  0.3343053112416214  0.6656927716264391 F F F
  0.3333317261738671  0.6656945988728253  0.6656914227207551 F F F
  0.3333353792338301  0.8313403502388326  0.8313390112492272 F F F
  0.3333345942310260  0.3337905615369650  0.0000004616812888 F F F
  0.3333346695193953  0.5000000005854162  0.1685069991650252 F F F
  0.3333345892835595  0.6662094564928367  0.0000003941868059 F F F
  0.3333345853687035  0.0000000196707788  0.3337919895561754 F F F
  0.3333347310250545  0.1685050541111437  0.4999996332215133 F F F
  0.3333346080583581  0.8314948889900791  0.4999996067709844 F F F
  0.3333345854765994  0.9999999718008965  0.6662076909764494 F F F
  0.3333346338494181  0.5000000383716952  0.8314936479075996 F F F
  0.4995676200851591  0.0000000213173195  0.1668626906596700 F F F
  0.4995675955109036  0.1668610061301123  0.0000004768033079 F F F
  0.5001422375553020  0.3331915025216645  0.1665578389237652 F F F
  0.4995435019622079  0.4999999944058047  0.0000003342006778 F F F
  0.5001422383789773  0.6668085467452300  0.1665577924947996 F F F
  0.4995675995778512  0.8331390676493555  0.0000003988661277 F F F
  0.4995433423056852  0.9999998728007995  0.4999996231698987 F F F
  0.5001421970739628  0.1665560241797408  0.3331928828216277 F F F
  0.4990252250930141  0.3343058181872181  0.4999984726891213 F F F
  0.4990245885459359  0.5000006476931844  0.3343098721489000 F F F
  0.4990249527104069  0.6656940216552272  0.4999984627314262 F F F
  0.5001421360363025  0.8334440269392402  0.3331928518168681 F F F
  0.4995676040976420  0.9999999543377527  0.8331378104854039 F F F
  0.5001421989655199  0.1665559929619960  0.6668068108967518 F F F
  0.5001422455950149  0.3331915128226086  0.8334427876731070 F F F
  0.5001422766896226  0.6668085926533678  0.8334427806108096 F F F
  0.5001421730788849  0.8334439926856305  0.6668069041971947 F F F
  0.6664726090057584  0.3337674608283265  0.0000004250378041 F F F
  0.6646707422584228  0.4999999659712202  0.1686632832133981 F F F
  0.6664726241791641  0.6662326435521706  0.0000003353470959 F F F
  0.6664726181953284  0.9999999057842217  0.3337686683297250 F F F
  0.6646709984878996  0.1686605615645362  0.4999995441865295 F F F
  0.6646705419561627  0.8313376200705704  0.4999994942268842 F F F
  0.6664726204945026  0.9999998479797156  0.6662310369375746 F F F
  0.6646704328731161  0.4999999362520811  0.8313361792740821 F F F
  0.6669191668325070  0.1664149628220031  0.1664167167604589 F F F
  0.6669191784666779  0.8335850151773059  0.1664165948729632 F F F
  0.6667772550281157  0.3331918870062580  0.3331933544669425 F F F
  0.6667773174910963  0.6668081287146563  0.3331931770283916 F F F
  0.6669191305207818  0.1664149222652398  0.8335838086302800 F F F
  0.6667772823938449  0.3331918099363236  0.6668063182341726 F F F
  0.6667773076458232  0.6668082534459430  0.6668065686122802 F F F
  0.6669191210362797  0.8335849989443602  0.8335839002620702 F F F
  0.6668320255013001  0.9999999534326776  0.0000005040639763 F F F
  0.6648283915062621  0.4999998805796224  0.4999995155185886 F F F
  0.8333321253589858  0.5000000146324552  0.0000004257664088 F F F
  0.8333322250457229  0.9999998952152183  0.4999996558254054 F F F
  0.8333323120548073  0.3337672357502512  0.1668626003917240 F F F
  0.8333323102497232  0.6662328142525240  0.1668625495773952 F F F
  0.8333323051360324  0.1668608381602681  0.3337685126905114 F F F
  0.8333323028997768  0.8331391658973999  0.3337685583359189 F F F
  0.8333322823632727  0.1668608125641242  0.6662311679783102 F F F
  0.8333322687805378  0.3337672847000732  0.8331379488169119 F F F
  0.8333322172379738  0.6662327937313393  0.8331379130629415 F F F
  0.8333322416543822  0.8331391484730659  0.6662311351820236 F F F
  0.8333321524647062  0.0000000045795687  0.1665032752502000 F F F
  0.8333321389401220  0.1665015966347667  0.0000005284263978 F F F
  0.8333321487440344  0.8334984554511777  0.0000005291297427 F F F
  0.8333325759171188  0.3337906051541637  0.4999995996991089 F F F
  0.8333326476008409  0.4999999504208361  0.3337919956710138 F F F
  0.8333326726206494  0.6662094544136039  0.4999996052767557 F F F
  0.8333321274263668  0.9999999682214948  0.8334972478079123 F F F
  0.8333326600435953  0.4999999912297994  0.6662077043750969 F F F
  0.4990243600860751  0.4999999698571003  0.6656883948044694 T T T
 
  0.00000000E+00  0.00000000E+00  0.00000000E+00
  0.00000000E+00  0.00000000E+00  0.00000000E+00
  0.00000000E+00  0.00000000E+00  0.00000000E+00
  0.00000000E+00  0.00000000E+00  0.00000000E+00
  0.00000000E+00  0.00000000E+00  0.00000000E+00
  0.00000000E+00  0.00000000E+00  0.00000000E+00
  0.00000000E+00  0.00000000E+00  0.00000000E+00
  0.00000000E+00  0.00000000E+00  0.00000000E+00
  0.00000000E+00  0.00000000E+00  0.00000000E+00
  0.00000000E+00  0.00000000E+00  0.00000000E+00
  0.00000000E+00  0.00000000E+00  0.00000000E+00
  0.00000000E+00  0.00000000E+00  0.00000000E+00
  0.00000000E+00  0.00000000E+00  0.00000000E+00
  0.00000000E+00  0.00000000E+00  0.00000000E+00
  0.00000000E+00  0.00000000E+00  0.00000000E+00
  0.00000000E+00  0.00000000E+00  0.00000000E+00
  0.00000000E+00  0.00000000E+00  0.00000000E+00
  0.00000000E+00  0.00000000E+00  0.00000000E+00
  0.00000000E+00  0.00000000E+00  0.00000000E+00
  0.00000000E+00  0.00000000E+00  0.00000000E+00
  0.00000000E+00  0.00000000E+00  0.00000000E+00
  0.00000000E+00  0.00000000E+00  0.00000000E+00
  0.00000000E+00  0.00000000E+00  0.00000000E+00
  0.00000000E+00  0.00000000E+00  0.00000000E+00
  0.00000000E+00  0.00000000E+00  0.00000000E+00
  0.00000000E+00  0.00000000E+00  0.00000000E+00
  0.00000000E+00  0.00000000E+00  0.00000000E+00
  0.00000000E+00  0.00000000E+00  0.00000000E+00
  0.00000000E+00  0.00000000E+00  0.00000000E+00
  0.00000000E+00  0.00000000E+00  0.00000000E+00
  0.00000000E+00  0.00000000E+00  0.00000000E+00
  0.00000000E+00  0.00000000E+00  0.00000000E+00
  0.00000000E+00  0.00000000E+00  0.00000000E+00
  0.00000000E+00  0.00000000E+00  0.00000000E+00
  0.00000000E+00  0.00000000E+00  0.00000000E+00
  0.00000000E+00  0.00000000E+00  0.00000000E+00
  0.00000000E+00  0.00000000E+00  0.00000000E+00
  0.00000000E+00  0.00000000E+00  0.00000000E+00
  0.00000000E+00  0.00000000E+00  0.00000000E+00
  0.00000000E+00  0.00000000E+00  0.00000000E+00
  0.00000000E+00  0.00000000E+00  0.00000000E+00
  0.00000000E+00  0.00000000E+00  0.00000000E+00
  0.00000000E+00  0.00000000E+00  0.00000000E+00
  0.00000000E+00  0.00000000E+00  0.00000000E+00
  0.00000000E+00  0.00000000E+00  0.00000000E+00
  0.00000000E+00  0.00000000E+00  0.00000000E+00
  0.00000000E+00  0.00000000E+00  0.00000000E+00
  0.00000000E+00  0.00000000E+00  0.00000000E+00
  0.00000000E+00  0.00000000E+00  0.00000000E+00
  0.00000000E+00  0.00000000E+00  0.00000000E+00
  0.00000000E+00  0.00000000E+00  0.00000000E+00
  0.00000000E+00  0.00000000E+00  0.00000000E+00
  0.00000000E+00  0.00000000E+00  0.00000000E+00
  0.00000000E+00  0.00000000E+00  0.00000000E+00
  0.00000000E+00  0.00000000E+00  0.00000000E+00
  0.00000000E+00  0.00000000E+00  0.00000000E+00
  0.00000000E+00  0.00000000E+00  0.00000000E+00
  0.00000000E+00  0.00000000E+00  0.00000000E+00
  0.00000000E+00  0.00000000E+00  0.00000000E+00
  0.00000000E+00  0.00000000E+00  0.00000000E+00
  0.00000000E+00  0.00000000E+00  0.00000000E+00
  0.00000000E+00  0.00000000E+00  0.00000000E+00
  0.00000000E+00  0.00000000E+00  0.00000000E+00
  0.00000000E+00  0.00000000E+00  0.00000000E+00
  0.00000000E+00  0.00000000E+00  0.00000000E+00
  0.00000000E+00  0.00000000E+00  0.00000000E+00
  0.00000000E+00  0.00000000E+00  0.00000000E+00
  0.00000000E+00  0.00000000E+00  0.00000000E+00
  0.00000000E+00  0.00000000E+00  0.00000000E+00
  0.00000000E+00  0.00000000E+00  0.00000000E+00
  0.00000000E+00  0.00000000E+00  0.00000000E+00
  0.00000000E+00  0.00000000E+00  0.00000000E+00
  0.00000000E+00  0.00000000E+00  0.00000000E+00
  0.00000000E+00  0.00000000E+00  0.00000000E+00
  0.00000000E+00  0.00000000E+00  0.00000000E+00
  0.00000000E+00  0.00000000E+00  0.00000000E+00
  0.00000000E+00  0.00000000E+00  0.00000000E+00
  0.00000000E+00  0.00000000E+00  0.00000000E+00
  0.00000000E+00  0.00000000E+00  0.00000000E+00
  0.00000000E+00  0.00000000E+00  0.00000000E+00
  0.00000000E+00  0.00000000E+00  0.00000000E+00
  0.00000000E+00  0.00000000E+00  0.00000000E+00
  0.00000000E+00  0.00000000E+00  0.00000000E+00
  0.00000000E+00  0.00000000E+00  0.00000000E+00
  0.00000000E+00  0.00000000E+00  0.00000000E+00
  0.00000000E+00  0.00000000E+00  0.00000000E+00
  0.00000000E+00  0.00000000E+00  0.00000000E+00
  0.00000000E+00  0.00000000E+00  0.00000000E+00
  0.00000000E+00  0.00000000E+00  0.00000000E+00
  0.00000000E+00  0.00000000E+00  0.00000000E+00
  0.00000000E+00  0.00000000E+00  0.00000000E+00
  0.00000000E+00  0.00000000E+00  0.00000000E+00
  0.00000000E+00  0.00000000E+00  0.00000000E+00
  0.00000000E+00  0.00000000E+00  0.00000000E+00
  0.00000000E+00  0.00000000E+00  0.00000000E+00
  0.00000000E+00  0.00000000E+00  0.00000000E+00
  0.00000000E+00  0.00000000E+00  0.00000000E+00
  0.00000000E+00  0.00000000E+00  0.00000000E+00
  0.00000000E+00  0.00000000E+00  0.00000000E+00
  0.00000000E+00  0.00000000E+00  0.00000000E+00
  0.00000000E+00  0.00000000E+00  0.00000000E+00
  0.00000000E+00  0.00000000E+00  0.00000000E+00
  0.00000000E+00  0.00000000E+00  0.00000000E+00
  0.00000000E+00  0.00000000E+00  0.00000000E+00
  0.00000000E+00  0.00000000E+00  0.00000000E+00
  0.00000000E+00  0.00000000E+00  0.00000000E+00
  0.00000000E+00  0.00000000E+00  0.00000000E+00
