fcc_Fe_CON_333                          
   1.00000000000000     
    10.3348470473793466    0.0000000000000000    0.0000000000000000
     0.0000000000000000   10.3348470473793466    0.0000000000000000
     0.0000000000000000    0.0000000000000000   10.3348470473793466
   Fe   Te
   106     1
Direct
 -0.0007199802392006 -0.0000000141923893  0.0004193901324337
 -0.0003123267892215  0.1663058327936014  0.1663545441370921
 -0.0014916894348847  0.3338896951868463  0.0002513476788665
  0.0010173164835864  0.5000000134502576  0.1676841885143061
 -0.0014916917980765  0.6661103263411051  0.0002513151993857
 -0.0003123456121454  0.8336941507426987  0.1663545911973405
 -0.0007188163572523 -0.0000000067406312  0.3327607710674279
  0.0003101905076512  0.1668395583074697  0.5003236537193294
 -0.0005225922661054  0.3334118176157819  0.3328701394484723
  0.0010488154897306  0.5000000148829321  0.5000863366133873
 -0.0005225950512717  0.6665881966160172  0.3328701314926131
  0.0003102012248543  0.8331604431039716  0.5003236741942343
 -0.0013377715555128 -0.0000000085222327  0.6671237630572048
 -0.0007649742282507  0.1668327638419564  0.8333949743217455
 -0.0002879592362429  0.3328740792229657  0.6670710986669880
  0.0000662529934287  0.5000000126190001  0.8334700960189717
 -0.0002879633693233  0.6671259428106238  0.6670711642947180
 -0.0007649718426877  0.8331672223163021  0.8333949678902897
  0.1660944151039764 -0.0000000012419091  0.1659479678585686
  0.1659330712880401  0.1654688528500788  0.0006436223692063
  0.1659330574902917  0.8345311399217583  0.0006437188482434
  0.1593068433081991  0.3265622214351234  0.5002862554529500
  0.1614806578063462  0.4999999931794207  0.3281472712474416
  0.1593068354391654  0.6734377746624833  0.5002862630694794
  0.1663369265799537 -0.0000000139315064  0.8345018693788067
  0.1589051205207969  0.5000000189056806  0.6754602832535670
  0.1662034589318732  0.3334118230120965  0.1661440312988412
  0.1662034554226713  0.6665881852582656  0.1661440264787981
  0.1661725538642542  0.1668681051793724  0.3328392559888101
  0.1661725504833332  0.8331318957661664  0.3328392228496057
  0.1657667401266320  0.1657094601535551  0.6671790907526656
  0.1657874630748635  0.3322779359690505  0.8343054603010873
  0.1657874770537542  0.6677220800116029  0.8343055468377086
  0.1657667336531972  0.8342905328892667  0.6671791578035999
  0.1684335211128464  0.4999999994924434 -0.0026030856265043
  0.1657871010819297 -0.0000000039686043  0.4999388827776816
  0.3335103667270807 -0.0000000087086940  0.0007083828943514
  0.3336572364195197  0.1668397355403457  0.1669769956471387
  0.3336572467302467  0.8331602681574585  0.1669770116479229
  0.3336198472167840  0.3265622268088653  0.3259733125461088
  0.3336198309922002  0.6734377469851283  0.3259733356783245
  0.3329715310918194  0.1649392464305327  0.8351895545091788
  0.3319294023473413  0.3211030377838083  0.6755495203446260
  0.3319293976831464  0.6788969105982390  0.6755494173064751
  0.3329715169765925  0.8350607190501694  0.8351896445031795
  0.3331020622155182  0.3330530651584015 -0.0004456607980177
  0.3334196664488477  0.4999999913959753  0.1677153802016200
  0.3331020811249769  0.6669469433356804 -0.0004456073286769
  0.3332723955905745  0.0000000069731455  0.3324539004385865
  0.3331874688039241  0.1671564830673544  0.4998540401159845
  0.3331874557350548  0.8328435145080085  0.4998540142279398
  0.3334506888532047 -0.0000000097429967  0.6666799985126652
  0.3339899490701811  0.5000000119637010  0.8333071605028427
  0.5004574318910761 -0.0000000185692792  0.1653289255896009
  0.5002955492075151  0.1680935177733565 -0.0026956560927501
  0.5004048950012190  0.3328744666155287  0.1663786032634831
  0.4996992650099481  0.5000000133749987 -0.0026321769378795
  0.5004049062968009  0.6671255566285402  0.1663786595667749
  0.5002955758310462  0.8319064581266374 -0.0026957378740419
  0.5000136105521029  0.0000000140757424  0.5001170610047593
  0.5005126498746564  0.1657095044126064  0.3324331087200812
  0.5088826979969976  0.3211031445810143  0.4985958233540891
  0.5087934434668970  0.4999999885184445  0.3255723806388977
  0.5088826292448835  0.6788967987951829  0.4985957926724349
  0.5005126649954992  0.8342905288336220  0.3324331362167971
  0.5002974051475149 -0.0000000150549517  0.8343877221679215
  0.5006964123132963  0.1673446561895267  0.6673628321473760
  0.5009239804382074  0.3334771906578693  0.8337237070690844
  0.5009239904433209  0.6665228125380243  0.8337236722386613
  0.5006964020609377  0.8326553519467783  0.6673628310171448
  0.6677052602372733  0.3330049613334036 -0.0002490125739459
  0.6668033767368040  0.5000000138069002  0.1667335927460330
  0.6677052409445856  0.6669950548199288 -0.0002489918602073
  0.6678354536934278  0.0000000005800194  0.3330035932768616
  0.6685229216459767  0.1649395059394114  0.4996380666464754
  0.6685229223124192  0.8350605255640310  0.4996381840009257
  0.6677212630655858 -0.0000000024071458  0.6669637298063726
  0.6644200341157731  0.5000000139849540  0.8310864117057928
  0.6667285560378057  0.1668327739786500  0.1659018213166214
  0.6667285563222511  0.8331672156558949  0.1659018257594325
  0.6676372886502034  0.3322785655469491  0.3324541744781976
  0.6676373268525281  0.6677214329726416  0.3324542459736144
  0.6669846375725501  0.1665389019500783  0.8336511402546485
  0.6670571322285803  0.3334773361747360  0.6675901997448878
  0.6670571449282316  0.6665226692408889  0.6675902006228676
  0.6669846422828500  0.8334610824865473  0.8336511250358950
  0.6665802009044149 -0.0000000202208081 -0.0003779171669241
  0.6666407699921635  0.4999999900018456  0.5006562223467189
  0.8300410888597157  0.5000000203388405 -0.0032919390517145
  0.8340416478254210  0.0000000212448740  0.5001767542640174
  0.8335847771601195  0.3338896823801653  0.1651752649760362
  0.8335847792997293  0.6661103306090670  0.1651752342460725
  0.8339769898842049  0.1654689772804986  0.3325997324604911
  0.8339769943104129  0.8345310217563090  0.3325998205382873
  0.8306374913389990  0.1680935098756666  0.6669618790120246
  0.8330842542985119  0.3330049545916960  0.8343714868053711
  0.8330842393289114  0.6669950671074941  0.8343715161458192
  0.8306375187995556  0.8319064887928365  0.6669618137110543
  0.8337527963383108 -0.0000000086969621  0.1659468500709274
  0.8337563314139071  0.1661867048593891  0.0004228933791393
  0.8337563279323285  0.8338132718403690  0.0004229260765404
  0.8328875985762278  0.3330532136007115  0.4997685602836470
  0.8307272551344255  0.4999999995756839  0.3350996842915649
  0.8328876318610682  0.6669467743669409  0.4997685962958085
  0.8329554379881786 -0.0000000162748486  0.8332466487451924
  0.8307011418149967  0.5000000022543923  0.6663655805034876
  0.3467862342514184  0.5000000643985646  0.5134530438339187
 
  0.00000000E+00  0.00000000E+00  0.00000000E+00
  0.00000000E+00  0.00000000E+00  0.00000000E+00
  0.00000000E+00  0.00000000E+00  0.00000000E+00
  0.00000000E+00  0.00000000E+00  0.00000000E+00
  0.00000000E+00  0.00000000E+00  0.00000000E+00
  0.00000000E+00  0.00000000E+00  0.00000000E+00
  0.00000000E+00  0.00000000E+00  0.00000000E+00
  0.00000000E+00  0.00000000E+00  0.00000000E+00
  0.00000000E+00  0.00000000E+00  0.00000000E+00
  0.00000000E+00  0.00000000E+00  0.00000000E+00
  0.00000000E+00  0.00000000E+00  0.00000000E+00
  0.00000000E+00  0.00000000E+00  0.00000000E+00
  0.00000000E+00  0.00000000E+00  0.00000000E+00
  0.00000000E+00  0.00000000E+00  0.00000000E+00
  0.00000000E+00  0.00000000E+00  0.00000000E+00
  0.00000000E+00  0.00000000E+00  0.00000000E+00
  0.00000000E+00  0.00000000E+00  0.00000000E+00
  0.00000000E+00  0.00000000E+00  0.00000000E+00
  0.00000000E+00  0.00000000E+00  0.00000000E+00
  0.00000000E+00  0.00000000E+00  0.00000000E+00
  0.00000000E+00  0.00000000E+00  0.00000000E+00
  0.00000000E+00  0.00000000E+00  0.00000000E+00
  0.00000000E+00  0.00000000E+00  0.00000000E+00
  0.00000000E+00  0.00000000E+00  0.00000000E+00
  0.00000000E+00  0.00000000E+00  0.00000000E+00
  0.00000000E+00  0.00000000E+00  0.00000000E+00
  0.00000000E+00  0.00000000E+00  0.00000000E+00
  0.00000000E+00  0.00000000E+00  0.00000000E+00
  0.00000000E+00  0.00000000E+00  0.00000000E+00
  0.00000000E+00  0.00000000E+00  0.00000000E+00
  0.00000000E+00  0.00000000E+00  0.00000000E+00
  0.00000000E+00  0.00000000E+00  0.00000000E+00
  0.00000000E+00  0.00000000E+00  0.00000000E+00
  0.00000000E+00  0.00000000E+00  0.00000000E+00
  0.00000000E+00  0.00000000E+00  0.00000000E+00
  0.00000000E+00  0.00000000E+00  0.00000000E+00
  0.00000000E+00  0.00000000E+00  0.00000000E+00
  0.00000000E+00  0.00000000E+00  0.00000000E+00
  0.00000000E+00  0.00000000E+00  0.00000000E+00
  0.00000000E+00  0.00000000E+00  0.00000000E+00
  0.00000000E+00  0.00000000E+00  0.00000000E+00
  0.00000000E+00  0.00000000E+00  0.00000000E+00
  0.00000000E+00  0.00000000E+00  0.00000000E+00
  0.00000000E+00  0.00000000E+00  0.00000000E+00
  0.00000000E+00  0.00000000E+00  0.00000000E+00
  0.00000000E+00  0.00000000E+00  0.00000000E+00
  0.00000000E+00  0.00000000E+00  0.00000000E+00
  0.00000000E+00  0.00000000E+00  0.00000000E+00
  0.00000000E+00  0.00000000E+00  0.00000000E+00
  0.00000000E+00  0.00000000E+00  0.00000000E+00
  0.00000000E+00  0.00000000E+00  0.00000000E+00
  0.00000000E+00  0.00000000E+00  0.00000000E+00
  0.00000000E+00  0.00000000E+00  0.00000000E+00
  0.00000000E+00  0.00000000E+00  0.00000000E+00
  0.00000000E+00  0.00000000E+00  0.00000000E+00
  0.00000000E+00  0.00000000E+00  0.00000000E+00
  0.00000000E+00  0.00000000E+00  0.00000000E+00
  0.00000000E+00  0.00000000E+00  0.00000000E+00
  0.00000000E+00  0.00000000E+00  0.00000000E+00
  0.00000000E+00  0.00000000E+00  0.00000000E+00
  0.00000000E+00  0.00000000E+00  0.00000000E+00
  0.00000000E+00  0.00000000E+00  0.00000000E+00
  0.00000000E+00  0.00000000E+00  0.00000000E+00
  0.00000000E+00  0.00000000E+00  0.00000000E+00
  0.00000000E+00  0.00000000E+00  0.00000000E+00
  0.00000000E+00  0.00000000E+00  0.00000000E+00
  0.00000000E+00  0.00000000E+00  0.00000000E+00
  0.00000000E+00  0.00000000E+00  0.00000000E+00
  0.00000000E+00  0.00000000E+00  0.00000000E+00
  0.00000000E+00  0.00000000E+00  0.00000000E+00
  0.00000000E+00  0.00000000E+00  0.00000000E+00
  0.00000000E+00  0.00000000E+00  0.00000000E+00
  0.00000000E+00  0.00000000E+00  0.00000000E+00
  0.00000000E+00  0.00000000E+00  0.00000000E+00
  0.00000000E+00  0.00000000E+00  0.00000000E+00
  0.00000000E+00  0.00000000E+00  0.00000000E+00
  0.00000000E+00  0.00000000E+00  0.00000000E+00
  0.00000000E+00  0.00000000E+00  0.00000000E+00
  0.00000000E+00  0.00000000E+00  0.00000000E+00
  0.00000000E+00  0.00000000E+00  0.00000000E+00
  0.00000000E+00  0.00000000E+00  0.00000000E+00
  0.00000000E+00  0.00000000E+00  0.00000000E+00
  0.00000000E+00  0.00000000E+00  0.00000000E+00
  0.00000000E+00  0.00000000E+00  0.00000000E+00
  0.00000000E+00  0.00000000E+00  0.00000000E+00
  0.00000000E+00  0.00000000E+00  0.00000000E+00
  0.00000000E+00  0.00000000E+00  0.00000000E+00
  0.00000000E+00  0.00000000E+00  0.00000000E+00
  0.00000000E+00  0.00000000E+00  0.00000000E+00
  0.00000000E+00  0.00000000E+00  0.00000000E+00
  0.00000000E+00  0.00000000E+00  0.00000000E+00
  0.00000000E+00  0.00000000E+00  0.00000000E+00
  0.00000000E+00  0.00000000E+00  0.00000000E+00
  0.00000000E+00  0.00000000E+00  0.00000000E+00
  0.00000000E+00  0.00000000E+00  0.00000000E+00
  0.00000000E+00  0.00000000E+00  0.00000000E+00
  0.00000000E+00  0.00000000E+00  0.00000000E+00
  0.00000000E+00  0.00000000E+00  0.00000000E+00
  0.00000000E+00  0.00000000E+00  0.00000000E+00
  0.00000000E+00  0.00000000E+00  0.00000000E+00
  0.00000000E+00  0.00000000E+00  0.00000000E+00
  0.00000000E+00  0.00000000E+00  0.00000000E+00
  0.00000000E+00  0.00000000E+00  0.00000000E+00
  0.00000000E+00  0.00000000E+00  0.00000000E+00
  0.00000000E+00  0.00000000E+00  0.00000000E+00
  0.00000000E+00  0.00000000E+00  0.00000000E+00
  0.00000000E+00  0.00000000E+00  0.00000000E+00
