Fe                                      
   1.00000000000000     
    10.3348470473793004    0.0000000000000000    0.0000000000000000
     0.0000000000000000   10.3348470473793004    0.0000000000000000
     0.0000000000000000    0.0000000000000000   10.3348470473793004
   Fe
   107
Direct
  0.9996528537644609  0.0000000393454355 -0.0001837952693505
  0.9992331944704702  0.1666063671955439  0.1658997783269947
 -0.0005712500718148  0.3344768215645598  0.9998059416716819
  0.0022983063388758  0.4999998934679333  0.1689647626476204
 -0.0005713210108681  0.6655231443363682  0.9998058272515994
  0.9992331647946228  0.8333936515949864  0.1658997686056452
  0.0000396658044101  0.0000000260146433  0.3332740855842323
  0.0015950347158060  0.1693600191527410  0.4999061683914777
  0.9993200742895616  0.3333235027222810  0.3330112119281319
  0.0017800608094539  0.4999999729368854  0.5000651703665000
  0.9993200598332019  0.6666764566605438  0.3330111771807205
  0.0015950774051870  0.8306399787465980  0.4999060648030605
 -0.0016347533680939  0.0000000781633554  0.6665415420092738
  0.9992047579518732  0.1668409511636877  0.8333554659223283
  1.0005557910225942  0.3340722651766008  0.6664668883661226
  0.0036646250627427  0.5000000190034201  0.8304009238192871
  1.0005558919217608  0.6659276919248120  0.6664668122440004
  0.9992047336662462  0.8331589994598290  0.8333554644104707
  0.1666075684853119  0.0000000571575610  0.1667061797300574
  0.1665247890135946  0.1670797269410412  0.0000614685837551
  0.1665247619334311  0.8329202543307688  0.0000613783652709
  0.1672640034326515  0.3339677134018840  0.4994196047436654
  0.1673554055449960  0.4999999828412905  0.3340218660510986
  0.1672640613031877  0.6660323448647164  0.4994196327692355
  0.1667288610599046  0.0000001000606426  0.8334840259311823
  0.1713802826792729  0.4999999156712429  0.6634591321868373
  0.1663447284475304  0.3333234211141410  0.1659866341811744
  0.1663446607795530  0.6666765307033259  0.1659865288933074
  0.1658330883826179  0.1667327034203004  0.3324995813241315
  0.1658331282754313  0.8332673290805895  0.3324995720204258
  0.1641871738239069  0.1647222818547504  0.6667250989049087
  0.1661311820385517  0.3324768769190379  0.8331483964424914
  0.1661312038168851  0.6675230695985701  0.8331483862479766
  0.1641870775755328  0.8352778835763737  0.6667253014528904
  0.1672892212600024  0.4999999940519293  0.9983006052143856
  0.1650358389406732  0.0000000072896311  0.4995796886056906
  0.3332274732101321  0.0000000963725615  1.0013599781273557
  0.3332395233249346  0.1693598165685764  0.1682615098868641
  0.3332394770060216  0.8306402132874906  0.1682612826155994
  0.3327530271435865  0.3339674142228722  0.3339302405498600
  0.3327528907926251  0.6660327907333095  0.3339297930751741
  0.3331131417964551  0.1663961621752144  0.8335658067382490
  0.3309621966365940  0.3241060889927925  0.6668171124363090
  0.3309619856639710  0.6758939083924679  0.6668171507124393
  0.3331130920418979  0.8336037919761125  0.8335658093900445
  0.3330850190480193  0.3347805991855956 -0.0013564639578161
  0.3333986039181128  0.4999999211638784  0.1684465630513456
  0.3330850212283585  0.6652192889792936 -0.0013566255654322
  0.3329131919695673  0.0000000054227289  0.3317023597942212
  0.3319121367508520  0.1661390897594563  0.4985786343432702
  0.3319120746435875  0.8338608193307286  0.4985786734060458
  0.3330166678860816 -0.0000000191625891  0.6663411087109214
  0.3353753706737081  0.4999998806914299  0.8293084498599402
  0.4998748725063433  0.0000000234606700  0.1650317941679644
  0.4995355900916987  0.1692674910715054  0.9980557265814323
  0.4998000227560172  0.3340725334161579  0.1672222464946912
  0.4998752142464850  0.4999999771769844  0.9984983159275892
  0.4998000211686065  0.6659274665278661  0.1672222001444066
  0.4995356095856666  0.8307324965353067  0.9980556160446747
  0.4996744639962246  0.0000000024357357  0.4996831890909298
  0.5000584433207262  0.1647222881033191  0.3308537876031645
  0.5001503782648749  0.3241063959421398  0.4976287999241329
  0.4967922377332572  0.5000000030205003  0.3380468552118513
  0.5001502836050339  0.6758936208385412  0.4976287511155601
  0.5000584035300764  0.8352776738868301  0.3308538177593643
  0.4995737350783958  0.0000000446333225  0.8342394633706885
  0.5004950319509502  0.1659947540179892  0.6671616969345617
  0.4993192362087333  0.3359325751264403  0.8301903926087894
  0.4993191748328320  0.6640673744604405  0.8301902379385024
  0.5004949764112406  0.8340052182780631  0.6671616738485742
  0.6660824456331228  0.3334023942382250 -0.0001516189756657
  0.6637340190341710  0.4999999892078321  0.1703310722566207
  0.6660825122958330  0.6665975688672526 -0.0001516286389144
  0.6668171351034323 -0.0000000271423472  0.3333954080710463
  0.6668989133354402  0.1663961847823256  0.4997797440706412
  0.6668989028667711  0.8336038141833433  0.4997797692885779
  0.6675726844572928  0.0000000257089525  0.6662404678145440
  0.6664330777627315  0.5000000114490923  0.8330998617299508
  0.6666886552832890  0.1668410157461637  0.1658713359087771
  0.6666886989623394  0.8331589831191968  0.1658713306302107
  0.6664815842151527  0.3324770745822867  0.3327977823147395
  0.6664816030759493  0.6675229612794417  0.3327978288391005
  0.6670354171598912  0.1669497115569143  0.8337023440255465
  0.6635237875735149  0.3359324513664625  0.6659861238774566
  0.6635237694565315  0.6640675388887114  0.6659859553556429
  0.6670354273807259  0.8330502715791126  0.8337022688513399
  0.6663674941464582  0.0000000248770717  0.9990978360442019
  0.6626415876001210  0.5000000118783587  0.5020421144404567
  0.8307574692894109  0.4999999190625605  0.9974239437205487
  0.8346930196748513  0.0000001071310595  0.4998939808769497
  0.8331391867481490  0.3344768621075899  0.1660953125507637
  0.8331391925561857  0.6655231042762874  0.1660952059477982
  0.8333946785331603  0.1670797619890936  0.3331913069970950
  0.8333946549197165  0.8329202536067777  0.3331912345101505
  0.8313888851482034  0.1692674527191130  0.6662023543637247
  0.8331817429794278  0.3334023467551196  0.8327493159096440
  0.8331817628897705  0.6665976092425359  0.8327493126233090
  0.8313889546730235  0.8307325265227824  0.6662022132585238
  0.8331494555660804  0.0000000127474149  0.1663194029807224
  0.8334582521066223  0.1662417092174933  0.0001249901767215
  0.8334582070538905  0.8337583011402456  0.0001250768048093
  0.8319768012573679  0.3347804873759311  0.4997511337327494
  0.8316339318388291  0.4999999517126356  0.3339557635004976
  0.8319768255715827  0.6652195395109373  0.4997510372132817
  0.8324310251903836  0.0000000401245632  0.8330342556631566
  0.8318316902837902  0.5000000350145007  0.6665418043486377
  0.4596950849432999  0.5000000950431560  0.6263620310963732
 
  0.00000000E+00  0.00000000E+00  0.00000000E+00
  0.00000000E+00  0.00000000E+00  0.00000000E+00
  0.00000000E+00  0.00000000E+00  0.00000000E+00
  0.00000000E+00  0.00000000E+00  0.00000000E+00
  0.00000000E+00  0.00000000E+00  0.00000000E+00
  0.00000000E+00  0.00000000E+00  0.00000000E+00
  0.00000000E+00  0.00000000E+00  0.00000000E+00
  0.00000000E+00  0.00000000E+00  0.00000000E+00
  0.00000000E+00  0.00000000E+00  0.00000000E+00
  0.00000000E+00  0.00000000E+00  0.00000000E+00
  0.00000000E+00  0.00000000E+00  0.00000000E+00
  0.00000000E+00  0.00000000E+00  0.00000000E+00
  0.00000000E+00  0.00000000E+00  0.00000000E+00
  0.00000000E+00  0.00000000E+00  0.00000000E+00
  0.00000000E+00  0.00000000E+00  0.00000000E+00
  0.00000000E+00  0.00000000E+00  0.00000000E+00
  0.00000000E+00  0.00000000E+00  0.00000000E+00
  0.00000000E+00  0.00000000E+00  0.00000000E+00
  0.00000000E+00  0.00000000E+00  0.00000000E+00
  0.00000000E+00  0.00000000E+00  0.00000000E+00
  0.00000000E+00  0.00000000E+00  0.00000000E+00
  0.00000000E+00  0.00000000E+00  0.00000000E+00
  0.00000000E+00  0.00000000E+00  0.00000000E+00
  0.00000000E+00  0.00000000E+00  0.00000000E+00
  0.00000000E+00  0.00000000E+00  0.00000000E+00
  0.00000000E+00  0.00000000E+00  0.00000000E+00
  0.00000000E+00  0.00000000E+00  0.00000000E+00
  0.00000000E+00  0.00000000E+00  0.00000000E+00
  0.00000000E+00  0.00000000E+00  0.00000000E+00
  0.00000000E+00  0.00000000E+00  0.00000000E+00
  0.00000000E+00  0.00000000E+00  0.00000000E+00
  0.00000000E+00  0.00000000E+00  0.00000000E+00
  0.00000000E+00  0.00000000E+00  0.00000000E+00
  0.00000000E+00  0.00000000E+00  0.00000000E+00
  0.00000000E+00  0.00000000E+00  0.00000000E+00
  0.00000000E+00  0.00000000E+00  0.00000000E+00
  0.00000000E+00  0.00000000E+00  0.00000000E+00
  0.00000000E+00  0.00000000E+00  0.00000000E+00
  0.00000000E+00  0.00000000E+00  0.00000000E+00
  0.00000000E+00  0.00000000E+00  0.00000000E+00
  0.00000000E+00  0.00000000E+00  0.00000000E+00
  0.00000000E+00  0.00000000E+00  0.00000000E+00
  0.00000000E+00  0.00000000E+00  0.00000000E+00
  0.00000000E+00  0.00000000E+00  0.00000000E+00
  0.00000000E+00  0.00000000E+00  0.00000000E+00
  0.00000000E+00  0.00000000E+00  0.00000000E+00
  0.00000000E+00  0.00000000E+00  0.00000000E+00
  0.00000000E+00  0.00000000E+00  0.00000000E+00
  0.00000000E+00  0.00000000E+00  0.00000000E+00
  0.00000000E+00  0.00000000E+00  0.00000000E+00
  0.00000000E+00  0.00000000E+00  0.00000000E+00
  0.00000000E+00  0.00000000E+00  0.00000000E+00
  0.00000000E+00  0.00000000E+00  0.00000000E+00
  0.00000000E+00  0.00000000E+00  0.00000000E+00
  0.00000000E+00  0.00000000E+00  0.00000000E+00
  0.00000000E+00  0.00000000E+00  0.00000000E+00
  0.00000000E+00  0.00000000E+00  0.00000000E+00
  0.00000000E+00  0.00000000E+00  0.00000000E+00
  0.00000000E+00  0.00000000E+00  0.00000000E+00
  0.00000000E+00  0.00000000E+00  0.00000000E+00
  0.00000000E+00  0.00000000E+00  0.00000000E+00
  0.00000000E+00  0.00000000E+00  0.00000000E+00
  0.00000000E+00  0.00000000E+00  0.00000000E+00
  0.00000000E+00  0.00000000E+00  0.00000000E+00
  0.00000000E+00  0.00000000E+00  0.00000000E+00
  0.00000000E+00  0.00000000E+00  0.00000000E+00
  0.00000000E+00  0.00000000E+00  0.00000000E+00
  0.00000000E+00  0.00000000E+00  0.00000000E+00
  0.00000000E+00  0.00000000E+00  0.00000000E+00
  0.00000000E+00  0.00000000E+00  0.00000000E+00
  0.00000000E+00  0.00000000E+00  0.00000000E+00
  0.00000000E+00  0.00000000E+00  0.00000000E+00
  0.00000000E+00  0.00000000E+00  0.00000000E+00
  0.00000000E+00  0.00000000E+00  0.00000000E+00
  0.00000000E+00  0.00000000E+00  0.00000000E+00
  0.00000000E+00  0.00000000E+00  0.00000000E+00
  0.00000000E+00  0.00000000E+00  0.00000000E+00
  0.00000000E+00  0.00000000E+00  0.00000000E+00
  0.00000000E+00  0.00000000E+00  0.00000000E+00
  0.00000000E+00  0.00000000E+00  0.00000000E+00
  0.00000000E+00  0.00000000E+00  0.00000000E+00
  0.00000000E+00  0.00000000E+00  0.00000000E+00
  0.00000000E+00  0.00000000E+00  0.00000000E+00
  0.00000000E+00  0.00000000E+00  0.00000000E+00
  0.00000000E+00  0.00000000E+00  0.00000000E+00
  0.00000000E+00  0.00000000E+00  0.00000000E+00
  0.00000000E+00  0.00000000E+00  0.00000000E+00
  0.00000000E+00  0.00000000E+00  0.00000000E+00
  0.00000000E+00  0.00000000E+00  0.00000000E+00
  0.00000000E+00  0.00000000E+00  0.00000000E+00
  0.00000000E+00  0.00000000E+00  0.00000000E+00
  0.00000000E+00  0.00000000E+00  0.00000000E+00
  0.00000000E+00  0.00000000E+00  0.00000000E+00
  0.00000000E+00  0.00000000E+00  0.00000000E+00
  0.00000000E+00  0.00000000E+00  0.00000000E+00
  0.00000000E+00  0.00000000E+00  0.00000000E+00
  0.00000000E+00  0.00000000E+00  0.00000000E+00
  0.00000000E+00  0.00000000E+00  0.00000000E+00
  0.00000000E+00  0.00000000E+00  0.00000000E+00
  0.00000000E+00  0.00000000E+00  0.00000000E+00
  0.00000000E+00  0.00000000E+00  0.00000000E+00
  0.00000000E+00  0.00000000E+00  0.00000000E+00
  0.00000000E+00  0.00000000E+00  0.00000000E+00
  0.00000000E+00  0.00000000E+00  0.00000000E+00
  0.00000000E+00  0.00000000E+00  0.00000000E+00
  0.00000000E+00  0.00000000E+00  0.00000000E+00
  0.00000000E+00  0.00000000E+00  0.00000000E+00
