Fe
   1.00000000000000     
  10.3348470473793004   0.0000000000000000   0.0000000000000000
   0.0000000000000000  10.3348470473793004   0.0000000000000000
   0.0000000000000000   0.0000000000000000  10.3348470473793004
Fe
107  
Direct
  0.9998754120247640  0.0000002372899459  0.0000417741371166  
  0.9998101090748430  0.1664366429500960  0.1664795062169590  
  0.0001448365327619  0.3337670739569490  0.9999519503281890  
  0.0014960132168014  0.4999997604124640  0.1681640416560130  
  0.0001448017754342  0.6662327114093780  0.9999519257295190  
  0.9998100726167750  0.8335636725527210  0.1664795507954150  
  0.0001448005561571  0.0000002315293273  0.3336184051677980  
  0.0014959778831951  0.1682110085378100  0.5001080196435690  
  0.9999161253266780  0.3333356246721380  0.3332768233966660  
  0.0013777083261033  0.4999996914312350  0.5001139514077910  
  0.9999161128594310  0.6666641959715630  0.3332768448053400  
  0.0014960616973809  0.8317891862592430  0.5001079376231270  
  0.0001448282019822  0.0000002211369861  0.6663398314964720  
  0.9998101514425460  0.1665265590747250  0.8334126495399869  
  0.9999161544940450  0.3333414149993320  0.6667712892459789  
  0.0014960962967550  0.4999997538501760  0.8317221135861890  
  0.9999161568723740  0.6666584076525410  0.6667712602973740  
  0.9998100990246500  0.8334737500259380  0.8334126219920890  
  0.1669510213413400  0.0000002615581565  0.1668140408341610  
  0.1669294000715310  0.1667495572576310  0.0000635149243493  
  0.1669293962465730  0.8332507903411330  0.0000634852072423  
  0.1673711888063850  0.3340269874025170  0.4999635073288860  
  0.1678976042509460  0.5000005537827620  0.3345628235032620  
  0.1673712036858320  0.6659728542801560  0.4999634620790450  
  0.1670409553022840  0.0000002292674992  0.8330781006207320  
  0.1678585385034450  0.4999997426816950  0.6659350775527531  
  0.1666098374180510  0.3333350980214580  0.1665852719671790  
  0.1666098252298770  0.6666646746992410  0.1665852970468150  
  0.1664984143904530  0.1665208320442200  0.3331647686946580  
  0.1664984290956970  0.8334794534732590  0.3331648192370050  
  0.1670595746661830  0.1670819048908710  0.6667715351963540  
  0.1665335916464130  0.3331910460380530  0.8334505494262390  
  0.1665335696866630  0.6668087671131960  0.8334505223392270  
  0.1670595851328610  0.8329183851661240  0.6667714766263300  
  0.1675093195027770  0.4999997432530850  0.9995014521266010  
  0.1670591064175330  0.0000001949342163  0.5001079828463449  
  0.3334431569299310  0.0000002519647992  0.9999519321191530  
  0.3334437189758430  0.1682100493484310  0.1681631122857540  
  0.3334437003668780  0.8317902804470660  0.1681630373392550  
  0.3332966589025830  0.3340268449122020  0.3340361049450280  
  0.3332965612417170  0.6659729428615290  0.3340360366858660  
  0.3332996879599510  0.1681338099889300  0.8318727738970040  
  0.3335753758739630  0.3343051835490630  0.6659366215131119  
  0.3335754635346720  0.6656945651078841  0.6659357754939780  
  0.3332996765755350  0.8318665335489260  0.8318726621257539  
  0.3332992413166020  0.3336406788263910  0.0000281528485147  
  0.3334490975703730  0.4999997305026300  0.1680471581527600  
  0.3332992325329660  0.6663591056605040  0.0000281354327427  
  0.3334432007529530  0.0000002566857944  0.3337259888043600  
  0.3332993216155770  0.1680178734043740  0.4999642920738760  
  0.3332991734449640  0.8319823976631400  0.4999642570439780  
  0.3334489915635070  0.0000002081160915  0.6663221200551210  
  0.3335780350202170  0.4999997316486710  0.8317093244610940  
  0.4996758419898340  0.0000002619718416  0.1668139658079180  
  0.4996757890083860  0.1673113608317320  0.9995014646336950  
  0.5001068040307500  0.3333411867427780  0.1665852983861100  
  0.4996577435533500  0.4999997068752220  0.9995409570795249  
  0.5001068170219229  0.6666586112368830  0.1665852540951180  
  0.4996758204203720  0.8326889719497150  0.9995013826956620  
  0.4996576442603170  0.0000001370448217  0.5001139972557670  
  0.5001067614601100  0.1670825967782360  0.3337271275723310  
  0.4992693094555630  0.3343056803827120  0.5002427191965280  
  0.4992685802256820  0.5000001955025510  0.3345254279561660  
  0.4992692814755340  0.6656936348394850  0.5002426561250320  
  0.5001067366388410  0.8329177189628040  0.3337270712206290  
  0.4996758131169940  0.0000001991976148  0.8330720543700419  
  0.5001067692883080  0.1670432382880880  0.6667714372021720  
  0.5001070445589800  0.3334698894630610  0.8331712299851470  
  0.5001070672782930  0.6665299597427460  0.8331712951820980  
  0.5001067485629560  0.8329571267851320  0.6667714914552930  
  0.6665562329632100  0.3336233713664570  0.0000281542050473  
  0.6650550709323970  0.4999997177081920  0.1681643828596790  
  0.6665562748010880  0.6663765043161550  0.0000281352064349  
  0.6664123181714250  0.0000001508053487  0.3337084968349800  
  0.6652050822516100  0.1681344963717350  0.4999642269468720  
  0.6652047820676190  0.8318644660658800  0.4999641484799970  
  0.6664065130302670  0.0000001125315379  0.6663395948268520  
  0.6649258210002740  0.4999996529297450  0.8315912070613930  
  0.6667472842395770  0.1665264923093020  0.1664795079327130  
  0.6667473011349470  0.8334737387241520  0.1664794108547910  
  0.6667846978628160  0.3331917134105920  0.3332008428939370  
  0.6667847953124590  0.6668080910759000  0.3332006586870190  
  0.6668912559283340  0.1664502293013110  0.8335562288587109  
  0.6665062674115920  0.3334700086097800  0.6667719198094910  
  0.6665063783322300  0.6665298123165190  0.6667720947504850  
  0.6668912794227070  0.8335500308559460  0.8335563416624230  
  0.6666818615912150  0.0000001823747411  0.9999519417029390  
  0.6650445126499140  0.4999993456495200  0.5002434102303970  
  0.8328331544938981  0.4999997704149810  0.9995014504813610  
  0.8332834838751210  0.0000001477292457  0.5001079537694650  
  0.8332836186569280  0.3337671052020350  0.1668139244810760  
  0.8332836127829490  0.6662327037649260  0.1668138917303920  
  0.8333950892695160  0.1667494411403040  0.3335967360008420  
  0.8333950722521880  0.8332507996849190  0.3335967837194080  
  0.8328339118683420  0.1673105323051090  0.6663395050742340  
  0.8333598454757550  0.3336230690716920  0.8332218629600310  
  0.8333598515117370  0.6663767698001380  0.8332218656970060  
  0.8328338857663480  0.8326897049385450  0.6663394407482240  
  0.8333733476676740  0.0000002385645814  0.1665444710509620  
  0.8333949962175070  0.1664799902943700  0.0000635389803421  
  0.8333949798975550  0.8335202986648580  0.0000635458131697  
  0.8333600204969760  0.3336406465873340  0.4999642360297260  
  0.8328335757429460  0.4999997331968370  0.3341763917945140  
  0.8333601495301370  0.6663591842872730  0.4999642019866000  
  0.8332834295923490  0.0000002113106916  0.8333476440592590  
  0.8328729332826440  0.4999997117697460  0.6663220751974490  
  0.4578460698736110  0.4999996837998280  0.6245103097521890  
