SYSTEM=Vib
ISTART=0
ICHARG=2
LREAL=Auto
LWAVE =.F.
LCHARG=.F.

ENCUT=400
ALGO = Fast
EDIFF =1E-6

NSW=1
POTIM=0.03
IBRION=5
ISIF=2

ISPIN=1
#MAGMOM = 108*5
NELM=400
EDIFFG=-0.01



NGX=72
NGY=72
NGZ=72

ISYM=0


#NELMDL=5
#LMAXMIX=4
#AMIX=0.2
#BMIX=0.0001
#AMIX_MAG=0.8
#BMIX_MAG=0.0001
NFREE=2
ISYM=0
PREC=Accurate
