fcc_Fe_CON_333                          
   1.00000000000000     
    10.3348470473793466    0.0000000000000000    0.0000000000000000
     0.0000000000000000   10.3348470473793466    0.0000000000000000
     0.0000000000000000    0.0000000000000000   10.3348470473793466
   Fe
   107
Selective Dynamics
Direct
  0.9999993809944456  0.0000009838673378  0.0001656218853228 F F F
  0.9999993355322800  0.1665017137601055  0.1666679476569826 F F F
  0.9999994358022875  0.3337668454875029  0.9998062716165776 F F F
  0.9999993037408288  0.4999990203426989  0.1666678179257346 F F F
  0.9999993378995029  0.6662321983898849  0.9998062399472545 F F F
  0.9999993044345103  0.8334992006590198  0.1666680400354821 F F F
  0.9999992625870249  0.0000009445085425  0.3331683410897810 F F F
  0.9999992917746212  0.1668613135596502  0.5004328202477737 F F F
  0.9999993225454773  0.3337668917282102  0.3335279529770716 F F F
  0.9999994152922795  0.4999990091953777  0.5004570577896246 F F F
  0.9999992389089414  0.6662322035127133  0.3335279777721780 F F F
  0.9999993453117213  0.8331396358463010  0.5004328022979152 F F F
  0.9999993395943676  0.0000009427115089  0.6666654123856546 F F F
  0.9999993678233068  0.1668612955893920  0.8328989616913773 F F F
  0.9999994646885852  0.3337900555487678  0.6666653620757330 F F F
  0.9999994801103611  0.4999989514665444  0.8328748233639729 F F F
  0.9999994573802837  0.6662090273670245  0.6666652809402436 F F F
  0.9999994020196681  0.8331397024301026  0.8328989006971241 F F F
  0.1665023392185248  0.0000009820486824  0.1666679021451927 F F F
  0.1664157795097481  0.1664152247670287  0.0002525267638092 F F F
  0.1664157624645952  0.8335858774028893  0.0002525024220290 F F F
  0.1665568187856437  0.3331908319915584  0.4998582392799307 F F F
  0.1686628719049068  0.4999990077369958  0.3353298093740449 F F F
  0.1665566409488264  0.6668083669376230  0.4998581876890498 F F F
  0.1668619890562084  0.0000009079119891  0.8328988704739757 F F F
  0.1685055118923131  0.4999988754005571  0.6666653328013865 F F F
  0.1668617202746177  0.3337666878166985  0.1666677736238853 F F F
  0.1668616922815289  0.6662323581371083  0.1666678321284323 F F F
  0.1664158253283148  0.1664153002819262  0.3330813467244838 F F F
  0.1664157922417431  0.8335857296566971  0.3330814646228717 F F F
  0.1686605084138648  0.1686598131041350  0.6666647119241631 F F F
  0.1665567435770257  0.3331905094693326  0.8334736436476220 F F F
  0.1665565943312757  0.6668086422647548  0.8334736273934382 F F F
  0.1686604556214917  0.8313412933454885  0.6666645366163735 F F F
  0.1686630369594724  0.4999989410592534  0.9980044885835255 F F F
  0.1668619545039007  0.0000008545257018  0.5004329577120927 F F F
  0.3337689740769108  0.0000009759960591  0.9998061998623200 F F F
  0.3337687606015862  0.1668611070525188  0.1666678137920883 F F F
  0.3337687601032968  0.8331399215118722  0.1666678186386150 F F F
  0.3331933748976610  0.3331911198843756  0.3332232744812913 F F F
  0.3331932538930999  0.6668079726016884  0.3332231402731765 F F F
  0.3331927260347598  0.1665561646852112  0.8334735741797772 F F F
  0.3343083940521439  0.3343048004714078  0.6666681711731712 F F F
  0.3343066756171069  0.6656944638130398  0.6666688338136240 F F F
  0.3331925686006940  0.8334450834791838  0.8334736147553343 F F F
  0.3331931825733534  0.3331910306946710  0.0001112263501497 F F F
  0.3337923817233204  0.4999989202542920  0.1666676351160064 F F F
  0.3331931622811624  0.6668080531635212  0.0001113591705533 F F F
  0.3337690469057435  0.0000009677308199  0.3335279865489156 F F F
  0.3331930933871234  0.1665563312840632  0.4998582686309661 F F F
  0.3331928696048223  0.8334449236823218  0.4998582078629781 F F F
  0.3337922098242530  0.0000009170617190  0.6666654072911342 F F F
  0.3343082385326355  0.4999988114795784  0.8323563541216217 F F F
  0.5000005077038594  0.0000009839353652  0.1666677912526850 F F F
  0.5000003695008530  0.1686624249366346  0.9980044281249008 F F F
  0.5000005034570734  0.3337902394061416  0.1666676767731232 F F F
  0.5000004683268173  0.4999988442834962  0.9981628257160864 F F F
  0.5000005529507732  0.6662088047118431  0.1666676388960724 F F F
  0.5000004829479323  0.8313386848507704  0.9980043341842446 F F F
  0.5000005501241915  0.0000009297768884  0.5004571195133920 F F F
  0.5000004546185508  0.1686623145737443  0.3353298618244835 F F F
  0.5000015625431899  0.3343052669692383  0.5009754587187487 F F F
  0.5000005552648972  0.4999988389306651  0.3351720953779775 F F F
  0.5000022677709168  0.6656924743922374  0.5009752363058695 F F F
  0.5000005384464359  0.8313387950334743  0.3353297294319120 F F F
  0.5000004401750360  0.0000009337771587  0.8328747860239787 F F F
  0.5000004802567162  0.1685049742663765  0.6666653161184755 F F F
  0.5000014414508769  0.3343050193843951  0.8323565569212477 F F F
  0.5000014390442828  0.6656940610109032  0.8323568388959757 F F F
  0.5000004750151490  0.8314965290836369  0.6666652532296098 F F F
  0.6668071048355841  0.3331911029808481  0.0001113417067558 F F F
  0.6662080569542965  0.4999989729191512  0.1666676817985433 F F F
  0.6668072266668403  0.6668080866080857  0.0001115347844305 F F F
  0.6662314180997342  0.0000008858687082  0.3335279823507449 F F F
  0.6668073335427209  0.1665563007933528  0.4998582752279006 F F F
  0.6668075024019657  0.8334450040517893  0.4998581112393339 F F F
  0.6662081906375832  0.0000009061869832  0.6666652684946399 F F F
  0.6656919853817271  0.4999988029627573  0.8323562904233484 F F F
  0.6662316364608074  0.1668610807712412  0.1666678814494560 F F F
  0.6662316691397763  0.8331399093646894  0.1666678588002526 F F F
  0.6668070263669179  0.3331911926236160  0.3332233081749649 F F F
  0.6668072287765696  0.6668079781596319  0.3332231036629452 F F F
  0.6668076321509915  0.1665561504095052  0.8334734895440050 F F F
  0.6656932224648529  0.3343046046301268  0.6666687245354268 F F F
  0.6656935903914700  0.6656944889282244  0.6666686731650984 F F F
  0.6668077545819671  0.8334451265907248  0.8334736658634796 F F F
  0.6662313698609381  0.0000008692009175  0.9998062546198270 F F F
  0.6656928760808682  0.4999977408592358  0.5009750943658347 F F F
  0.8313362418986543  0.4999990377625565  0.9980045246261966 F F F
  0.8331372603633369  0.0000009052712855  0.5004328476016227 F F F
  0.8331375384632906  0.3337667135573668  0.1666678967491748 F F F
  0.8331375203826070  0.6662323723021544  0.1666679181893969 F F F
  0.8335834416699797  0.1664152500803908  0.3330814059318499 F F F
  0.8335833803094204  0.8335857010474754  0.3330814598698524 F F F
  0.8313388003835342  0.1686596915280845  0.6666645163620473 F F F
  0.8334425755614276  0.3331904221865685  0.8334736053894076 F F F
  0.8334427543330278  0.6668086980065340  0.8334737235992193 F F F
  0.8313388181022603  0.8313413743349400  0.6666643574468054 F F F
  0.8334969332765780  0.0000009405196408  0.1666680584532259 F F F
  0.8335835680496828  0.1664151712732007  0.0002525706421537 F F F
  0.8335834733581606  0.8335858283058997  0.0002525958634507 F F F
  0.8334423542365244  0.3331907708868656  0.4998581450215767 F F F
  0.8313363601692814  0.4999990815248623  0.3353295801650020 F F F
  0.8334425802585770  0.6668083739082391  0.4998579921161337 F F F
  0.8331373360903171  0.0000009405782961  0.8328988328133420 F F F
  0.8314937529998332  0.4999988733896075  0.6666651876645489 F F F
  0.3343111992362182  0.4999988256280332  0.5009760545953696 T T T
 
  0.00000000E+00  0.00000000E+00  0.00000000E+00
  0.00000000E+00  0.00000000E+00  0.00000000E+00
  0.00000000E+00  0.00000000E+00  0.00000000E+00
  0.00000000E+00  0.00000000E+00  0.00000000E+00
  0.00000000E+00  0.00000000E+00  0.00000000E+00
  0.00000000E+00  0.00000000E+00  0.00000000E+00
  0.00000000E+00  0.00000000E+00  0.00000000E+00
  0.00000000E+00  0.00000000E+00  0.00000000E+00
  0.00000000E+00  0.00000000E+00  0.00000000E+00
  0.00000000E+00  0.00000000E+00  0.00000000E+00
  0.00000000E+00  0.00000000E+00  0.00000000E+00
  0.00000000E+00  0.00000000E+00  0.00000000E+00
  0.00000000E+00  0.00000000E+00  0.00000000E+00
  0.00000000E+00  0.00000000E+00  0.00000000E+00
  0.00000000E+00  0.00000000E+00  0.00000000E+00
  0.00000000E+00  0.00000000E+00  0.00000000E+00
  0.00000000E+00  0.00000000E+00  0.00000000E+00
  0.00000000E+00  0.00000000E+00  0.00000000E+00
  0.00000000E+00  0.00000000E+00  0.00000000E+00
  0.00000000E+00  0.00000000E+00  0.00000000E+00
  0.00000000E+00  0.00000000E+00  0.00000000E+00
  0.00000000E+00  0.00000000E+00  0.00000000E+00
  0.00000000E+00  0.00000000E+00  0.00000000E+00
  0.00000000E+00  0.00000000E+00  0.00000000E+00
  0.00000000E+00  0.00000000E+00  0.00000000E+00
  0.00000000E+00  0.00000000E+00  0.00000000E+00
  0.00000000E+00  0.00000000E+00  0.00000000E+00
  0.00000000E+00  0.00000000E+00  0.00000000E+00
  0.00000000E+00  0.00000000E+00  0.00000000E+00
  0.00000000E+00  0.00000000E+00  0.00000000E+00
  0.00000000E+00  0.00000000E+00  0.00000000E+00
  0.00000000E+00  0.00000000E+00  0.00000000E+00
  0.00000000E+00  0.00000000E+00  0.00000000E+00
  0.00000000E+00  0.00000000E+00  0.00000000E+00
  0.00000000E+00  0.00000000E+00  0.00000000E+00
  0.00000000E+00  0.00000000E+00  0.00000000E+00
  0.00000000E+00  0.00000000E+00  0.00000000E+00
  0.00000000E+00  0.00000000E+00  0.00000000E+00
  0.00000000E+00  0.00000000E+00  0.00000000E+00
  0.00000000E+00  0.00000000E+00  0.00000000E+00
  0.00000000E+00  0.00000000E+00  0.00000000E+00
  0.00000000E+00  0.00000000E+00  0.00000000E+00
  0.00000000E+00  0.00000000E+00  0.00000000E+00
  0.00000000E+00  0.00000000E+00  0.00000000E+00
  0.00000000E+00  0.00000000E+00  0.00000000E+00
  0.00000000E+00  0.00000000E+00  0.00000000E+00
  0.00000000E+00  0.00000000E+00  0.00000000E+00
  0.00000000E+00  0.00000000E+00  0.00000000E+00
  0.00000000E+00  0.00000000E+00  0.00000000E+00
  0.00000000E+00  0.00000000E+00  0.00000000E+00
  0.00000000E+00  0.00000000E+00  0.00000000E+00
  0.00000000E+00  0.00000000E+00  0.00000000E+00
  0.00000000E+00  0.00000000E+00  0.00000000E+00
  0.00000000E+00  0.00000000E+00  0.00000000E+00
  0.00000000E+00  0.00000000E+00  0.00000000E+00
  0.00000000E+00  0.00000000E+00  0.00000000E+00
  0.00000000E+00  0.00000000E+00  0.00000000E+00
  0.00000000E+00  0.00000000E+00  0.00000000E+00
  0.00000000E+00  0.00000000E+00  0.00000000E+00
  0.00000000E+00  0.00000000E+00  0.00000000E+00
  0.00000000E+00  0.00000000E+00  0.00000000E+00
  0.00000000E+00  0.00000000E+00  0.00000000E+00
  0.00000000E+00  0.00000000E+00  0.00000000E+00
  0.00000000E+00  0.00000000E+00  0.00000000E+00
  0.00000000E+00  0.00000000E+00  0.00000000E+00
  0.00000000E+00  0.00000000E+00  0.00000000E+00
  0.00000000E+00  0.00000000E+00  0.00000000E+00
  0.00000000E+00  0.00000000E+00  0.00000000E+00
  0.00000000E+00  0.00000000E+00  0.00000000E+00
  0.00000000E+00  0.00000000E+00  0.00000000E+00
  0.00000000E+00  0.00000000E+00  0.00000000E+00
  0.00000000E+00  0.00000000E+00  0.00000000E+00
  0.00000000E+00  0.00000000E+00  0.00000000E+00
  0.00000000E+00  0.00000000E+00  0.00000000E+00
  0.00000000E+00  0.00000000E+00  0.00000000E+00
  0.00000000E+00  0.00000000E+00  0.00000000E+00
  0.00000000E+00  0.00000000E+00  0.00000000E+00
  0.00000000E+00  0.00000000E+00  0.00000000E+00
  0.00000000E+00  0.00000000E+00  0.00000000E+00
  0.00000000E+00  0.00000000E+00  0.00000000E+00
  0.00000000E+00  0.00000000E+00  0.00000000E+00
  0.00000000E+00  0.00000000E+00  0.00000000E+00
  0.00000000E+00  0.00000000E+00  0.00000000E+00
  0.00000000E+00  0.00000000E+00  0.00000000E+00
  0.00000000E+00  0.00000000E+00  0.00000000E+00
  0.00000000E+00  0.00000000E+00  0.00000000E+00
  0.00000000E+00  0.00000000E+00  0.00000000E+00
  0.00000000E+00  0.00000000E+00  0.00000000E+00
  0.00000000E+00  0.00000000E+00  0.00000000E+00
  0.00000000E+00  0.00000000E+00  0.00000000E+00
  0.00000000E+00  0.00000000E+00  0.00000000E+00
  0.00000000E+00  0.00000000E+00  0.00000000E+00
  0.00000000E+00  0.00000000E+00  0.00000000E+00
  0.00000000E+00  0.00000000E+00  0.00000000E+00
  0.00000000E+00  0.00000000E+00  0.00000000E+00
  0.00000000E+00  0.00000000E+00  0.00000000E+00
  0.00000000E+00  0.00000000E+00  0.00000000E+00
  0.00000000E+00  0.00000000E+00  0.00000000E+00
  0.00000000E+00  0.00000000E+00  0.00000000E+00
  0.00000000E+00  0.00000000E+00  0.00000000E+00
  0.00000000E+00  0.00000000E+00  0.00000000E+00
  0.00000000E+00  0.00000000E+00  0.00000000E+00
  0.00000000E+00  0.00000000E+00  0.00000000E+00
  0.00000000E+00  0.00000000E+00  0.00000000E+00
  0.00000000E+00  0.00000000E+00  0.00000000E+00
  0.00000000E+00  0.00000000E+00  0.00000000E+00
  0.00000000E+00  0.00000000E+00  0.00000000E+00
