fcc_Fe_CON_333                          
   1.00000000000000     
    10.3390821289582693    0.0000000000000000    0.0000000000000000
    -0.0000000000000000   10.3390821289582693    0.0000000000000000
    -0.0000000000000000   -0.0000000000000000   10.3390821289582693
   Fe
   108
Direct
  0.0000000000000000 -0.0000000000000000  0.0000000000000000
  0.0000000000000000  0.1666695587301992  0.1666695587301992
  0.1666695587301992 -0.0000000000000000  0.1666695587301992
  0.1666695587301992  0.1666695587301992  0.0000000000000000
  0.3333304401208519 -0.0000000000000000  0.0000000000000000
  0.3333304400660199  0.1666695599339801  0.1666695599339801
  0.5000000000000000 -0.0000000000000000  0.1666695598791481
  0.5000000000000000  0.1666695598791481  0.0000000000000000
  0.6666695888791468 -0.0000000000000000  0.0000000000000000
  0.6666695889339790  0.1666695599339801  0.1666695599339801
  0.8333304122698019 -0.0000000000000000  0.1666695587301992
  0.8333304122698019  0.1666695587301992  0.0000000000000000
  0.0000000000000000  0.3333304401208519  0.0000000000000000
  0.0000000000000000  0.5000000000000000  0.1666695598791481
  0.1666695599339801  0.3333304400660199  0.1666695599339801
  0.1666695598791481  0.5000000000000000  0.0000000000000000
  0.3333304412698008  0.3333304412698008  0.0000000000000000
  0.3333304412698008  0.5000000000000000  0.1666695587301992
  0.5000000000000000  0.3333304412698008  0.1666695587301992
  0.5000000000000000  0.5000000000000000  0.0000000000000000
  0.6666695877301981  0.3333304412698008  0.0000000000000000
  0.6666695877301981  0.5000000000000000  0.1666695587301992
  0.8333304110660210  0.3333304400660199  0.1666695599339801
  0.8333304111208532  0.5000000000000000  0.0000000000000000
  0.0000000000000000  0.6666695888791468  0.0000000000000000
  0.0000000000000000  0.8333304122698019  0.1666695587301992
  0.1666695599339801  0.6666695889339790  0.1666695599339801
  0.1666695587301992  0.8333304122698019  0.0000000000000000
  0.3333304412698008  0.6666695877301981  0.0000000000000000
  0.3333304400660199  0.8333304110660210  0.1666695599339801
  0.5000000000000000  0.6666695877301981  0.1666695587301992
  0.5000000000000000  0.8333304111208532  0.0000000000000000
  0.6666695877301981  0.6666695877301981  0.0000000000000000
  0.6666695889339790  0.8333304110660210  0.1666695599339801
  0.8333304110660210  0.6666695889339790  0.1666695599339801
  0.8333304122698019  0.8333304122698019  0.0000000000000000
  0.0000000000000000 -0.0000000000000000  0.3333304401208519
  0.0000000000000000  0.1666695598791481  0.5000000000000000
  0.1666695598791481 -0.0000000000000000  0.5000000000000000
  0.1666695599339801  0.1666695599339801  0.3333304400660199
  0.3333304412698008 -0.0000000000000000  0.3333304412698008
  0.3333304412698008  0.1666695587301992  0.5000000000000000
  0.5000000000000000 -0.0000000000000000  0.5000000000000000
  0.5000000000000000  0.1666695587301992  0.3333304412698008
  0.6666695877301981 -0.0000000000000000  0.3333304412698008
  0.6666695877301981  0.1666695587301992  0.5000000000000000
  0.8333304111208532 -0.0000000000000000  0.5000000000000000
  0.8333304110660210  0.1666695599339801  0.3333304400660199
  0.0000000000000000  0.3333304412698008  0.3333304412698008
  0.0000000000000000  0.5000000000000000  0.5000000000000000
  0.1666695587301992  0.3333304412698008  0.5000000000000000
  0.1666695587301992  0.5000000000000000  0.3333304412698008
  0.3333304400660199  0.3333304400660199  0.3333304400660199
  0.3333304401208519  0.5000000000000000  0.5000000000000000
  0.5000000000000000  0.3333304401208519  0.5000000000000000
  0.5000000000000000  0.5000000000000000  0.3333304401208519
  0.6666695889339790  0.3333304400660199  0.3333304400660199
  0.6666695888791468  0.5000000000000000  0.5000000000000000
  0.8333304122698019  0.3333304412698008  0.5000000000000000
  0.8333304122698019  0.5000000000000000  0.3333304412698008
  0.0000000000000000  0.6666695877301981  0.3333304412698008
  0.0000000000000000  0.8333304111208532  0.5000000000000000
  0.1666695587301992  0.6666695877301981  0.5000000000000000
  0.1666695599339801  0.8333304110660210  0.3333304400660199
  0.3333304400660199  0.6666695889339790  0.3333304400660199
  0.3333304412698008  0.8333304122698019  0.5000000000000000
  0.5000000000000000  0.6666695888791468  0.5000000000000000
  0.5000000000000000  0.8333304122698019  0.3333304412698008
  0.6666695889339790  0.6666695889339790  0.3333304400660199
  0.6666695877301981  0.8333304122698019  0.5000000000000000
  0.8333304122698019  0.6666695877301981  0.5000000000000000
  0.8333304110660210  0.8333304110660210  0.3333304400660199
  0.0000000000000000 -0.0000000000000000  0.6666695888791468
  0.0000000000000000  0.1666695587301992  0.8333304122698019
  0.1666695587301992 -0.0000000000000000  0.8333304122698019
  0.1666695599339801  0.1666695599339801  0.6666695889339790
  0.3333304412698008 -0.0000000000000000  0.6666695877301981
  0.3333304400660199  0.1666695599339801  0.8333304110660210
  0.5000000000000000 -0.0000000000000000  0.8333304111208532
  0.5000000000000000  0.1666695587301992  0.6666695877301981
  0.6666695877301981 -0.0000000000000000  0.6666695877301981
  0.6666695889339790  0.1666695599339801  0.8333304110660210
  0.8333304122698019 -0.0000000000000000  0.8333304122698019
  0.8333304110660210  0.1666695599339801  0.6666695889339790
  0.0000000000000000  0.3333304412698008  0.6666695877301981
  0.0000000000000000  0.5000000000000000  0.8333304111208532
  0.1666695599339801  0.3333304400660199  0.8333304110660210
  0.1666695587301992  0.5000000000000000  0.6666695877301981
  0.3333304400660199  0.3333304400660199  0.6666695889339790
  0.3333304412698008  0.5000000000000000  0.8333304122698019
  0.5000000000000000  0.3333304412698008  0.8333304122698019
  0.5000000000000000  0.5000000000000000  0.6666695888791468
  0.6666695889339790  0.3333304400660199  0.6666695889339790
  0.6666695877301981  0.5000000000000000  0.8333304122698019
  0.8333304110660210  0.3333304400660199  0.8333304110660210
  0.8333304122698019  0.5000000000000000  0.6666695877301981
  0.0000000000000000  0.6666695877301981  0.6666695877301981
  0.0000000000000000  0.8333304122698019  0.8333304122698019
  0.1666695599339801  0.6666695889339790  0.8333304110660210
  0.1666695599339801  0.8333304110660210  0.6666695889339790
  0.3333304400660199  0.6666695889339790  0.6666695889339790
  0.3333304400660199  0.8333304110660210  0.8333304110660210
  0.5000000000000000  0.6666695877301981  0.8333304122698019
  0.5000000000000000  0.8333304122698019  0.6666695877301981
  0.6666695889339790  0.6666695889339790  0.6666695889339790
  0.6666695889339790  0.8333304110660210  0.8333304110660210
  0.8333304110660210  0.6666695889339790  0.8333304110660210
  0.8333304110660210  0.8333304110660210  0.6666695889339790
 
  0.00000000E+00  0.00000000E+00  0.00000000E+00
  0.00000000E+00  0.00000000E+00  0.00000000E+00
  0.00000000E+00  0.00000000E+00  0.00000000E+00
  0.00000000E+00  0.00000000E+00  0.00000000E+00
  0.00000000E+00  0.00000000E+00  0.00000000E+00
  0.00000000E+00  0.00000000E+00  0.00000000E+00
  0.00000000E+00  0.00000000E+00  0.00000000E+00
  0.00000000E+00  0.00000000E+00  0.00000000E+00
  0.00000000E+00  0.00000000E+00  0.00000000E+00
  0.00000000E+00  0.00000000E+00  0.00000000E+00
  0.00000000E+00  0.00000000E+00  0.00000000E+00
  0.00000000E+00  0.00000000E+00  0.00000000E+00
  0.00000000E+00  0.00000000E+00  0.00000000E+00
  0.00000000E+00  0.00000000E+00  0.00000000E+00
  0.00000000E+00  0.00000000E+00  0.00000000E+00
  0.00000000E+00  0.00000000E+00  0.00000000E+00
  0.00000000E+00  0.00000000E+00  0.00000000E+00
  0.00000000E+00  0.00000000E+00  0.00000000E+00
  0.00000000E+00  0.00000000E+00  0.00000000E+00
  0.00000000E+00  0.00000000E+00  0.00000000E+00
  0.00000000E+00  0.00000000E+00  0.00000000E+00
  0.00000000E+00  0.00000000E+00  0.00000000E+00
  0.00000000E+00  0.00000000E+00  0.00000000E+00
  0.00000000E+00  0.00000000E+00  0.00000000E+00
  0.00000000E+00  0.00000000E+00  0.00000000E+00
  0.00000000E+00  0.00000000E+00  0.00000000E+00
  0.00000000E+00  0.00000000E+00  0.00000000E+00
  0.00000000E+00  0.00000000E+00  0.00000000E+00
  0.00000000E+00  0.00000000E+00  0.00000000E+00
  0.00000000E+00  0.00000000E+00  0.00000000E+00
  0.00000000E+00  0.00000000E+00  0.00000000E+00
  0.00000000E+00  0.00000000E+00  0.00000000E+00
  0.00000000E+00  0.00000000E+00  0.00000000E+00
  0.00000000E+00  0.00000000E+00  0.00000000E+00
  0.00000000E+00  0.00000000E+00  0.00000000E+00
  0.00000000E+00  0.00000000E+00  0.00000000E+00
  0.00000000E+00  0.00000000E+00  0.00000000E+00
  0.00000000E+00  0.00000000E+00  0.00000000E+00
  0.00000000E+00  0.00000000E+00  0.00000000E+00
  0.00000000E+00  0.00000000E+00  0.00000000E+00
  0.00000000E+00  0.00000000E+00  0.00000000E+00
  0.00000000E+00  0.00000000E+00  0.00000000E+00
  0.00000000E+00  0.00000000E+00  0.00000000E+00
  0.00000000E+00  0.00000000E+00  0.00000000E+00
  0.00000000E+00  0.00000000E+00  0.00000000E+00
  0.00000000E+00  0.00000000E+00  0.00000000E+00
  0.00000000E+00  0.00000000E+00  0.00000000E+00
  0.00000000E+00  0.00000000E+00  0.00000000E+00
  0.00000000E+00  0.00000000E+00  0.00000000E+00
  0.00000000E+00  0.00000000E+00  0.00000000E+00
  0.00000000E+00  0.00000000E+00  0.00000000E+00
  0.00000000E+00  0.00000000E+00  0.00000000E+00
  0.00000000E+00  0.00000000E+00  0.00000000E+00
  0.00000000E+00  0.00000000E+00  0.00000000E+00
  0.00000000E+00  0.00000000E+00  0.00000000E+00
  0.00000000E+00  0.00000000E+00  0.00000000E+00
  0.00000000E+00  0.00000000E+00  0.00000000E+00
  0.00000000E+00  0.00000000E+00  0.00000000E+00
  0.00000000E+00  0.00000000E+00  0.00000000E+00
  0.00000000E+00  0.00000000E+00  0.00000000E+00
  0.00000000E+00  0.00000000E+00  0.00000000E+00
  0.00000000E+00  0.00000000E+00  0.00000000E+00
  0.00000000E+00  0.00000000E+00  0.00000000E+00
  0.00000000E+00  0.00000000E+00  0.00000000E+00
  0.00000000E+00  0.00000000E+00  0.00000000E+00
  0.00000000E+00  0.00000000E+00  0.00000000E+00
  0.00000000E+00  0.00000000E+00  0.00000000E+00
  0.00000000E+00  0.00000000E+00  0.00000000E+00
  0.00000000E+00  0.00000000E+00  0.00000000E+00
  0.00000000E+00  0.00000000E+00  0.00000000E+00
  0.00000000E+00  0.00000000E+00  0.00000000E+00
  0.00000000E+00  0.00000000E+00  0.00000000E+00
  0.00000000E+00  0.00000000E+00  0.00000000E+00
  0.00000000E+00  0.00000000E+00  0.00000000E+00
  0.00000000E+00  0.00000000E+00  0.00000000E+00
  0.00000000E+00  0.00000000E+00  0.00000000E+00
  0.00000000E+00  0.00000000E+00  0.00000000E+00
  0.00000000E+00  0.00000000E+00  0.00000000E+00
  0.00000000E+00  0.00000000E+00  0.00000000E+00
  0.00000000E+00  0.00000000E+00  0.00000000E+00
  0.00000000E+00  0.00000000E+00  0.00000000E+00
  0.00000000E+00  0.00000000E+00  0.00000000E+00
  0.00000000E+00  0.00000000E+00  0.00000000E+00
  0.00000000E+00  0.00000000E+00  0.00000000E+00
  0.00000000E+00  0.00000000E+00  0.00000000E+00
  0.00000000E+00  0.00000000E+00  0.00000000E+00
  0.00000000E+00  0.00000000E+00  0.00000000E+00
  0.00000000E+00  0.00000000E+00  0.00000000E+00
  0.00000000E+00  0.00000000E+00  0.00000000E+00
  0.00000000E+00  0.00000000E+00  0.00000000E+00
  0.00000000E+00  0.00000000E+00  0.00000000E+00
  0.00000000E+00  0.00000000E+00  0.00000000E+00
  0.00000000E+00  0.00000000E+00  0.00000000E+00
  0.00000000E+00  0.00000000E+00  0.00000000E+00
  0.00000000E+00  0.00000000E+00  0.00000000E+00
  0.00000000E+00  0.00000000E+00  0.00000000E+00
  0.00000000E+00  0.00000000E+00  0.00000000E+00
  0.00000000E+00  0.00000000E+00  0.00000000E+00
  0.00000000E+00  0.00000000E+00  0.00000000E+00
  0.00000000E+00  0.00000000E+00  0.00000000E+00
  0.00000000E+00  0.00000000E+00  0.00000000E+00
  0.00000000E+00  0.00000000E+00  0.00000000E+00
  0.00000000E+00  0.00000000E+00  0.00000000E+00
  0.00000000E+00  0.00000000E+00  0.00000000E+00
  0.00000000E+00  0.00000000E+00  0.00000000E+00
  0.00000000E+00  0.00000000E+00  0.00000000E+00
  0.00000000E+00  0.00000000E+00  0.00000000E+00
  0.00000000E+00  0.00000000E+00  0.00000000E+00
