fcc_Fe_CON_333
1.0
       10.9504003525         0.0000000000         0.0000000000
        0.0000000000        10.9504003525         0.0000000000
        0.0000000000         0.0000000000        10.9504003525
   Fe
  108
Direct
     0.000000000         0.000000000         0.000000000
     0.000000000         0.166669995         0.166669995
     0.166669995         0.000000000         0.166669995
     0.166669995         0.166669995         0.000000000
     0.333330005         0.000000000         0.000000000
     0.333330005         0.166669995         0.166669995
     0.500000000         0.000000000         0.166669995
     0.500000000         0.166669995         0.000000000
     0.666670024         0.000000000         0.000000000
     0.666670024         0.166669995         0.166669995
     0.833329976         0.000000000         0.166669995
     0.833329976         0.166669995         0.000000000
     0.000000000         0.333330005         0.000000000
     0.000000000         0.500000000         0.166669995
     0.166669995         0.333330005         0.166669995
     0.166669995         0.500000000         0.000000000
     0.333330005         0.333330005         0.000000000
     0.333330005         0.500000000         0.166669995
     0.500000000         0.333330005         0.166669995
     0.500000000         0.500000000         0.000000000
     0.666670024         0.333330005         0.000000000
     0.666670024         0.500000000         0.166669995
     0.833329976         0.333330005         0.166669995
     0.833329976         0.500000000         0.000000000
     0.000000000         0.666670024         0.000000000
     0.000000000         0.833329976         0.166669995
     0.166669995         0.666670024         0.166669995
     0.166669995         0.833329976         0.000000000
     0.333330005         0.666670024         0.000000000
     0.333330005         0.833329976         0.166669995
     0.500000000         0.666670024         0.166669995
     0.500000000         0.833329976         0.000000000
     0.666670024         0.666670024         0.000000000
     0.666670024         0.833329976         0.166669995
     0.833329976         0.666670024         0.166669995
     0.833329976         0.833329976         0.000000000
     0.000000000         0.000000000         0.333330005
     0.000000000         0.166669995         0.500000000
     0.166669995         0.000000000         0.500000000
     0.166669995         0.166669995         0.333330005
     0.333330005         0.000000000         0.333330005
     0.333330005         0.166669995         0.500000000
     0.500000000         0.000000000         0.500000000
     0.500000000         0.166669995         0.333330005
     0.666670024         0.000000000         0.333330005
     0.666670024         0.166669995         0.500000000
     0.833329976         0.000000000         0.500000000
     0.833329976         0.166669995         0.333330005
     0.000000000         0.333330005         0.333330005
     0.000000000         0.500000000         0.500000000
     0.166669995         0.333330005         0.500000000
     0.166669995         0.500000000         0.333330005
     0.333330005         0.333330005         0.333330005
     0.333330005         0.500000000         0.500000000
     0.500000000         0.333330005         0.500000000
     0.500000000         0.500000000         0.333330005
     0.666670024         0.333330005         0.333330005
     0.666670024         0.500000000         0.500000000
     0.833329976         0.333330005         0.500000000
     0.833329976         0.500000000         0.333330005
     0.000000000         0.666670024         0.333330005
     0.000000000         0.833329976         0.500000000
     0.166669995         0.666670024         0.500000000
     0.166669995         0.833329976         0.333330005
     0.333330005         0.666670024         0.333330005
     0.333330005         0.833329976         0.500000000
     0.500000000         0.666670024         0.500000000
     0.500000000         0.833329976         0.333330005
     0.666670024         0.666670024         0.333330005
     0.666670024         0.833329976         0.500000000
     0.833329976         0.666670024         0.500000000
     0.833329976         0.833329976         0.333330005
     0.000000000         0.000000000         0.666670024
     0.000000000         0.166669995         0.833329976
     0.166669995         0.000000000         0.833329976
     0.166669995         0.166669995         0.666670024
     0.333330005         0.000000000         0.666670024
     0.333330005         0.166669995         0.833329976
     0.500000000         0.000000000         0.833329976
     0.500000000         0.166669995         0.666670024
     0.666670024         0.000000000         0.666670024
     0.666670024         0.166669995         0.833329976
     0.833329976         0.000000000         0.833329976
     0.833329976         0.166669995         0.666670024
     0.000000000         0.333330005         0.666670024
     0.000000000         0.500000000         0.833329976
     0.166669995         0.333330005         0.833329976
     0.166669995         0.500000000         0.666670024
     0.333330005         0.333330005         0.666670024
     0.333330005         0.500000000         0.833329976
     0.500000000         0.333330005         0.833329976
     0.500000000         0.500000000         0.666670024
     0.666670024         0.333330005         0.666670024
     0.666670024         0.500000000         0.833329976
     0.833329976         0.333330005         0.833329976
     0.833329976         0.500000000         0.666670024
     0.000000000         0.666670024         0.666670024
     0.000000000         0.833329976         0.833329976
     0.166669995         0.666670024         0.833329976
     0.166669995         0.833329976         0.666670024
     0.333330005         0.666670024         0.666670024
     0.333330005         0.833329976         0.833329976
     0.500000000         0.666670024         0.833329976
     0.500000000         0.833329976         0.666670024
     0.666670024         0.666670024         0.666670024
     0.666670024         0.833329976         0.833329976
     0.833329976         0.666670024         0.833329976
     0.833329976         0.833329976         0.666670024
