Fe                                      
   1.00000000000000     
    10.3348470473793004    0.0000000000000000    0.0000000000000000
     0.0000000000000000   10.3348470473793004    0.0000000000000000
     0.0000000000000000    0.0000000000000000   10.3348470473793004
   Fe
   107
Selective dynamics
Direct
  0.9999603181300714  0.0000000592039555  0.0000398804248789   F   F   F
  0.9995116325032782  0.1663744591284129  0.1661778497670880   F   F   F
  0.9996496974921527  0.3345897316471351  0.0003503783029117   F   F   F
  0.0026385690301893  0.4999998106175170  0.1693044627677267   F   F   F
  0.9996495436695412  0.6654101431844097  0.0003502241802096   F   F   F
  0.9995116226143637  0.8336255930920018  0.1661778851157152   F   F   F
  0.0006054527360391  0.0000000742820205  0.3334328485696005   F   F   F
  0.0021825375997011  0.1699133078551469  0.5000640294610577   F   F   F
  0.9995608329091183  0.3332846387197250  0.3334175963237129   F   F   F
  0.0015380587217635  0.4999998793450544  0.4999871295000489   F   F   F
  0.9995608354956147  0.6667152780650127  0.3334175383377982   F   F   F
  0.0021825893044110  0.8300867369217997  0.5000639397274185   F   F   F
  0.9982270068341279  0.0000001459648047  0.6664984350725689   F   F   F
  0.9994895952572023  0.1669621756416149  0.8334746248152527   F   F   F
  0.0010643519349216  0.3346367771429968  0.6668027040464750   F   F   F
  0.0031803602582272  0.4999998957300491  0.8312574935871595   F   F   F
  0.0010645311169952  0.6653631105951376  0.6668025747404087   F   F   F
  0.9994895235197134  0.8330378067083259  0.8334746477011592   F   F   F
  0.1667667728732170  0.0000000931660153  0.1672717794333778   F   F   F
  0.1665263629063247  0.1669624569718451  0.0005104441289276   F   F   F
  0.1665263188559152  0.8330375657416056  0.0005102618773520   F   F   F
  0.1688172260310168  0.3350287625034980  0.5001016086817742   F   F   F
  0.1662690695839757  0.4999999762567526  0.3329346656949141   F   F   F
  0.1688172891333508  0.6649712741988978  0.5001016148084787   F   F   F
  0.1664024926500147  0.0000001868598716  0.8335981637676184   F   F   F
  0.1714222682141724  0.4999997659943958  0.6639012329102627   F   F   F
  0.1667517957985822  0.3332844760121247  0.1662268994504572   F   F   F
  0.1667516252689722  0.6667154123563890  0.1662267048725070   F   F   F
  0.1658654222687943  0.1667224601457136  0.3325312979534445   F   F   F
  0.1658654195173810  0.8332775552637983  0.3325313005415751   F   F   F
  0.1644906629493832  0.1650521764907467  0.6669499083942512   F   F   F
  0.1664660186705333  0.3323187021807641  0.8335348591054696   F   F   F
  0.1664660895999006  0.6676811299627516  0.8335348466872219   F   F   F
  0.1644905489752304  0.8349481525325189  0.6669501636578872   F   F   F
  0.1687433764237127  0.4999999105201312  0.9968194897855298   F   F   F
  0.1648620611653939  0.0000000396564701  0.4999489193831295   F   F   F
  0.3335023784170588  0.0000001599283337  0.0017724614110506   F   F   F
  0.3333976628700484  0.1699131414382720  0.1688485253725958   F   F   F
  0.3333975960153595  0.8300869468734149  0.1688481458862441   F   F   F
  0.3334350610876413  0.3350281164586875  0.3354826772765591   F   F   F
  0.3334349202913032  0.6649723748035896  0.3354818903276495   F   F   F
  0.3330508898726663  0.1650522079813399  0.8355099470197658   F   F   F
  0.3307665083890328  0.3193513025941286  0.6692345251783820   F   F   F
  0.3307661123697017  0.6806486830204150  0.6692346320191405   F   F   F
  0.3330508807183605  0.8349478119770950  0.8355100111173854   F   F   F
  0.3331992682106417  0.3346371863816202  0.9989353953966642   F   F   F
  0.3333205069298870  0.4999998309737634  0.1682044898864774   F   F   F
  0.3331992908823267  0.6653625947206194  0.9989351893820313   F   F   F
  0.3332816272176373  0.0000000014073009  0.3315250604037985   F   F   F
  0.3319645563459801  0.1659368130000232  0.4986306843790516   F   F   F
  0.3319644532089328  0.8340631262223042  0.4986307657289117   F   F   F
  0.3332207964115383  0.9999999604548790  0.6667804238193611   F   F   F
  0.3360998357784695  0.4999997592929191  0.8285780109612801   F   F   F
  0.4998313588364454  0.0000000357704266  0.1648933861561019   F   F   F
  0.4999362586272582  0.1699133368362098  0.9978174544995539   F   F   F
  0.5001351314367213  0.3346373289757167  0.1677305935386855   F   F   F
  0.5000134230212296  0.4999999047178108  0.9984612824820331   F   F   F
  0.5001351607651046  0.6653626404021509  0.1677305413464367   F   F   F
  0.4999362943649928  0.8300866199949013  0.9978173197377842   F   F   F
  0.5001131522355777  0.9999999653846814  0.4998869608127237   F   F   F
  0.5002827691267555  0.1650524548696595  0.3311567718611599   F   F   F
  0.5025672195127413  0.3193519179916535  0.4974329737553091   F   F   F
  0.4972334774910365  0.4999999675594680  0.3380887160953492   F   F   F
  0.5025670359505483  0.6806481901687249  0.4974327641692540   F   F   F
  0.5002826763057797  0.8349475532150237  0.3311567476137043   F   F   F
  0.5000522365381102  0.9999999819044092  0.8351415082300306   F   F   F
  0.5013694837593690  0.1659370112795955  0.6680366129492015   F   F   F
  0.4998987479690982  0.3350284756985999  0.8311832802663517   F   F   F
  0.4998986258052227  0.6649714276552103  0.8311830900515673   F   F   F
  0.5013693130868191  0.8340629398104866  0.6680366188142628   F   F   F
  0.6665816599835210  0.3332845769658661  0.0004388304753391   F   F   F
  0.6645901064849795  0.4999999472777574  0.1698465496286374   F   F   F
  0.6665817581417741  0.6667153264591903  0.0004387432961295   F   F   F
  0.6669307046660933  0.0000000067328187  0.3330685055572786   F   F   F
  0.6688424236360717  0.1650522910139145  0.4997173374680344   F   F   F
  0.6688424274059415  0.8349477398713674  0.4997173962265862   F   F   F
  0.6684726777906391  0.0000006216247925  0.6667191002461266   F   F   F
  0.6670641994977657  0.4999999246839764  0.8337314018494197   F   F   F
  0.6668072430172955  0.1669625168933493  0.1661558650436916   F   F   F
  0.6668072492259185  0.8330374533785800  0.1661558605582201   F   F   F
  0.6668672918408021  0.3323191513595489  0.3331321165138732   F   F   F
  0.6668673163026924  0.6676808939766730  0.3331321849023468   F   F   F
  0.6674677872549921  0.1667227068669774  0.8341352289996777   F   F   F
  0.6645165890294464  0.3350284371282299  0.6665658397884044   F   F   F
  0.6645164855827730  0.6649715355018273  0.6665655980497434   F   F   F
  0.6674677744386059  0.8332772915265068  0.8341351405595816   F   F   F
  0.6665667335750172  0.0000000332641505  0.9993944215191064   F   F   F
  0.6619108658028949  0.4999999702231008  0.5027665486906514   F   F   F
  0.8306943967745539  0.4999998127563074  0.9973613196019073   F   F   F
  0.8351051883303455  0.0000001992081238  0.5001686392991260   F   F   F
  0.8336832863859485  0.3345898488636010  0.1663157393417976   F   F   F
  0.8336833246976383  0.6654100559311544  0.1663156497784186   F   F   F
  0.8338433653267572  0.1669624358245230  0.3331921082949236   F   F   F
  0.8338433803826959  0.8330376117806466  0.3331920613899939   F   F   F
  0.8311503195589509  0.1699132204076648  0.6666034023882332   F   F   F
  0.8337719706733679  0.3332846081963439  0.8332488736652053   F   F   F
  0.8337719749967007  0.6667153505172507  0.8332488588219604   F   F   F
  0.8311504476750784  0.8300867993629950  0.6666032844556824   F   F   F
  0.8333727577550007  0.0000000609406641  0.1666263328308872   F   F   F
  0.8338211679685443  0.1663744446083300  0.0004882600877636   F   F   F
  0.8338210708006812  0.8336256312167123  0.0004883589811442   F   F   F
  0.8322685604290712  0.3346369222760615  0.4998648811893034   F   F   F
  0.8301525689416991  0.4999999036284493  0.3354093620952128   F   F   F
  0.8322686156397836  0.6653631175837091  0.4998647615602465   F   F   F
  0.8327272790872371  0.0000000367528230  0.8332338917092414   F   F   F
  0.8317948167418692  0.4999999477109967  0.6666801861878824   F   F   F
  0.4166660075794724  0.5000000772621220  0.5804309776336890   T   T   T
 
  0.00000000E+00  0.00000000E+00  0.00000000E+00
  0.00000000E+00  0.00000000E+00  0.00000000E+00
  0.00000000E+00  0.00000000E+00  0.00000000E+00
  0.00000000E+00  0.00000000E+00  0.00000000E+00
  0.00000000E+00  0.00000000E+00  0.00000000E+00
  0.00000000E+00  0.00000000E+00  0.00000000E+00
  0.00000000E+00  0.00000000E+00  0.00000000E+00
  0.00000000E+00  0.00000000E+00  0.00000000E+00
  0.00000000E+00  0.00000000E+00  0.00000000E+00
  0.00000000E+00  0.00000000E+00  0.00000000E+00
  0.00000000E+00  0.00000000E+00  0.00000000E+00
  0.00000000E+00  0.00000000E+00  0.00000000E+00
  0.00000000E+00  0.00000000E+00  0.00000000E+00
  0.00000000E+00  0.00000000E+00  0.00000000E+00
  0.00000000E+00  0.00000000E+00  0.00000000E+00
  0.00000000E+00  0.00000000E+00  0.00000000E+00
  0.00000000E+00  0.00000000E+00  0.00000000E+00
  0.00000000E+00  0.00000000E+00  0.00000000E+00
  0.00000000E+00  0.00000000E+00  0.00000000E+00
  0.00000000E+00  0.00000000E+00  0.00000000E+00
  0.00000000E+00  0.00000000E+00  0.00000000E+00
  0.00000000E+00  0.00000000E+00  0.00000000E+00
  0.00000000E+00  0.00000000E+00  0.00000000E+00
  0.00000000E+00  0.00000000E+00  0.00000000E+00
  0.00000000E+00  0.00000000E+00  0.00000000E+00
  0.00000000E+00  0.00000000E+00  0.00000000E+00
  0.00000000E+00  0.00000000E+00  0.00000000E+00
  0.00000000E+00  0.00000000E+00  0.00000000E+00
  0.00000000E+00  0.00000000E+00  0.00000000E+00
  0.00000000E+00  0.00000000E+00  0.00000000E+00
  0.00000000E+00  0.00000000E+00  0.00000000E+00
  0.00000000E+00  0.00000000E+00  0.00000000E+00
  0.00000000E+00  0.00000000E+00  0.00000000E+00
  0.00000000E+00  0.00000000E+00  0.00000000E+00
  0.00000000E+00  0.00000000E+00  0.00000000E+00
  0.00000000E+00  0.00000000E+00  0.00000000E+00
  0.00000000E+00  0.00000000E+00  0.00000000E+00
  0.00000000E+00  0.00000000E+00  0.00000000E+00
  0.00000000E+00  0.00000000E+00  0.00000000E+00
  0.00000000E+00  0.00000000E+00  0.00000000E+00
  0.00000000E+00  0.00000000E+00  0.00000000E+00
  0.00000000E+00  0.00000000E+00  0.00000000E+00
  0.00000000E+00  0.00000000E+00  0.00000000E+00
  0.00000000E+00  0.00000000E+00  0.00000000E+00
  0.00000000E+00  0.00000000E+00  0.00000000E+00
  0.00000000E+00  0.00000000E+00  0.00000000E+00
  0.00000000E+00  0.00000000E+00  0.00000000E+00
  0.00000000E+00  0.00000000E+00  0.00000000E+00
  0.00000000E+00  0.00000000E+00  0.00000000E+00
  0.00000000E+00  0.00000000E+00  0.00000000E+00
  0.00000000E+00  0.00000000E+00  0.00000000E+00
  0.00000000E+00  0.00000000E+00  0.00000000E+00
  0.00000000E+00  0.00000000E+00  0.00000000E+00
  0.00000000E+00  0.00000000E+00  0.00000000E+00
  0.00000000E+00  0.00000000E+00  0.00000000E+00
  0.00000000E+00  0.00000000E+00  0.00000000E+00
  0.00000000E+00  0.00000000E+00  0.00000000E+00
  0.00000000E+00  0.00000000E+00  0.00000000E+00
  0.00000000E+00  0.00000000E+00  0.00000000E+00
  0.00000000E+00  0.00000000E+00  0.00000000E+00
  0.00000000E+00  0.00000000E+00  0.00000000E+00
  0.00000000E+00  0.00000000E+00  0.00000000E+00
  0.00000000E+00  0.00000000E+00  0.00000000E+00
  0.00000000E+00  0.00000000E+00  0.00000000E+00
  0.00000000E+00  0.00000000E+00  0.00000000E+00
  0.00000000E+00  0.00000000E+00  0.00000000E+00
  0.00000000E+00  0.00000000E+00  0.00000000E+00
  0.00000000E+00  0.00000000E+00  0.00000000E+00
  0.00000000E+00  0.00000000E+00  0.00000000E+00
  0.00000000E+00  0.00000000E+00  0.00000000E+00
  0.00000000E+00  0.00000000E+00  0.00000000E+00
  0.00000000E+00  0.00000000E+00  0.00000000E+00
  0.00000000E+00  0.00000000E+00  0.00000000E+00
  0.00000000E+00  0.00000000E+00  0.00000000E+00
  0.00000000E+00  0.00000000E+00  0.00000000E+00
  0.00000000E+00  0.00000000E+00  0.00000000E+00
  0.00000000E+00  0.00000000E+00  0.00000000E+00
  0.00000000E+00  0.00000000E+00  0.00000000E+00
  0.00000000E+00  0.00000000E+00  0.00000000E+00
  0.00000000E+00  0.00000000E+00  0.00000000E+00
  0.00000000E+00  0.00000000E+00  0.00000000E+00
  0.00000000E+00  0.00000000E+00  0.00000000E+00
  0.00000000E+00  0.00000000E+00  0.00000000E+00
  0.00000000E+00  0.00000000E+00  0.00000000E+00
  0.00000000E+00  0.00000000E+00  0.00000000E+00
  0.00000000E+00  0.00000000E+00  0.00000000E+00
  0.00000000E+00  0.00000000E+00  0.00000000E+00
  0.00000000E+00  0.00000000E+00  0.00000000E+00
  0.00000000E+00  0.00000000E+00  0.00000000E+00
  0.00000000E+00  0.00000000E+00  0.00000000E+00
  0.00000000E+00  0.00000000E+00  0.00000000E+00
  0.00000000E+00  0.00000000E+00  0.00000000E+00
  0.00000000E+00  0.00000000E+00  0.00000000E+00
  0.00000000E+00  0.00000000E+00  0.00000000E+00
  0.00000000E+00  0.00000000E+00  0.00000000E+00
  0.00000000E+00  0.00000000E+00  0.00000000E+00
  0.00000000E+00  0.00000000E+00  0.00000000E+00
  0.00000000E+00  0.00000000E+00  0.00000000E+00
  0.00000000E+00  0.00000000E+00  0.00000000E+00
  0.00000000E+00  0.00000000E+00  0.00000000E+00
  0.00000000E+00  0.00000000E+00  0.00000000E+00
  0.00000000E+00  0.00000000E+00  0.00000000E+00
  0.00000000E+00  0.00000000E+00  0.00000000E+00
  0.00000000E+00  0.00000000E+00  0.00000000E+00
  0.00000000E+00  0.00000000E+00  0.00000000E+00
  0.00000000E+00  0.00000000E+00  0.00000000E+00
  0.00000000E+00  0.00000000E+00  0.00000000E+00
