fcc_Fe_CON_333                          
   1.00000000000000     
    10.3348470473793466    0.0000000000000000    0.0000000000000000
     0.0000000000000000   10.3348470473793466    0.0000000000000000
     0.0000000000000000    0.0000000000000000   10.3348470473793466
   Fe   Te
   107     1
Direct
 -0.0004555978943430 -0.0000018808447861 -0.0000011576085486
 -0.0002147980497115  0.1664509487828373  0.1664512664439520
 -0.0012366137116148  0.3329546319529437 -0.0000009301726027
 -0.0005918661847772  0.5000018588321236  0.1660742376728855
 -0.0012366389362384  0.6670473625410624 -0.0000010458494044
 -0.0002149755173291  0.8335472595066776  0.1664510447503668
 -0.0012366324859505 -0.0000015959770160  0.3329541522745142
 -0.0005919053013289  0.1660739506158313  0.5000011251304680
 -0.0007888087559025  0.3326538083748986  0.3326534154294449
  0.0000978375499802  0.5000016721776080  0.5000010126236840
 -0.0007888559736997  0.6673478674296861  0.3326533625505745
 -0.0005920895064516  0.8339245134009532  0.5000012492064205
 -0.0012366820207702 -0.0000017089554239  0.6670469723102351
 -0.0002148989903620  0.1664507290752574  0.8335476025886976
 -0.0007888401865846  0.3326537473296268  0.6673474987927969
 -0.0005919661564048  0.5000019612857430  0.8339247636232722
 -0.0007888535037648  0.6673480274444482  0.6673476885844984
 -0.0002150439904812  0.8335473843516786  0.8335477497333783
  0.1662873660063274 -0.0000016426604641  0.1654296159624134
  0.1662873516741168  0.1654292988097163 -0.0000009957044805
  0.1662872821861878  0.8345689342942776 -0.0000010990179812
  0.1578838653107285  0.3245508249836341  0.5000008537446585
  0.1578840932943660  0.5000015918906027  0.3245504619525897
  0.1578847119800492  0.6754500377151056  0.5000010952282256
  0.1662872195273555 -0.0000018056436827  0.8345693113226046
  0.1578844722036416  0.5000017877296117  0.6754499382092749
  0.1659866726807631  0.3326539369778299  0.1658774299230836
  0.1659865681263264  0.6673477904433919  0.1658772936013544
  0.1659866598669343  0.1658771792489809  0.3326534709845867
  0.1659866937241201  0.8341212735652644  0.3326534126426697
  0.1659864757510063  0.1658769852292228  0.6673474386326159
  0.1659866333661712  0.3326538505560006  0.8341215985209421
  0.1659865726064430  0.6673480379515533  0.8341216636357006
  0.1659865331346725  0.8341213362535156  0.6673476838086231
  0.1664212761127795  0.5000019002183694 -0.0000008943555548
  0.1664213026567779 -0.0000016204902293  0.5000011634872381
  0.3333336594352595 -0.0000018150710388 -0.0000010852872031
  0.3333337004072592  0.1660740307166266  0.1660743510674172
  0.3333337284164471  0.8339244448360568  0.1660742223293715
  0.3333338138773145  0.3245513216997972  0.3245508330518860
  0.3333338516641172  0.6754493749918847  0.3245519594288657
  0.3333336512195215  0.1660738760443201  0.8339248125557503
  0.3333338006688504  0.3245521222429685  0.6754493319416950
  0.3333338231161115  0.6754487783627368  0.6754485578216778
  0.3333336967755953  0.8339245076564372  0.8339248824621749
  0.3333336650379918  0.3330885626617288 -0.0000008754735120
  0.3333337280583260  0.5000016459896867  0.1667645293268799
  0.3333336651466352  0.6669132592203523 -0.0000010070288639
  0.3333337306119180 -0.0000016642436603  0.3330881813480218
  0.3333337414368404  0.1667642428191411  0.5000008745372733
  0.3333338454035409  0.8332343294755120  0.5000010181252729
  0.3333336375455041 -0.0000018038422583  0.6669129129468616
  0.3333337209404743  0.5000017836599517  0.8332346409894087
  0.5003796785027986 -0.0000017078394539  0.1654295206794530
  0.5003796291374372  0.1654291361399336 -0.0000009316571226
  0.5006803112279422  0.3326538721401189  0.1658773883521774
  0.5002456269370955  0.5000018885508053 -0.0000008769827801
  0.5006804589825392  0.6673479083143554  0.1658773612843320
  0.5003797306152091  0.8345691264001028 -0.0000010315885882
  0.5002456128407343 -0.0000016997537178  0.5000010772168421
  0.5006803201634532  0.1658770883999146  0.3326533930116169
  0.5087817022554638  0.3245527515370679  0.5000008965439210
  0.5087814718812791  0.5000016220758590  0.3245525266847051
  0.5087809195650944  0.6754481802748572  0.5000011063265863
  0.5006803983811955  0.8341213458789969  0.3326534026232565
  0.5003797466856832 -0.0000018567391401  0.8345694844689382
  0.5006804745819189  0.1658769432794956  0.6673475373677834
  0.5006803188282191  0.3326538241274677  0.8341217272348075
  0.5087811151192555  0.5000018167561362  0.6754480367872386
  0.5006804383632454  0.6673481067661252  0.8341217358861919
  0.5006805067915434  0.8341213726894626  0.6673477420294053
  0.6679029265262827  0.3329546081594483 -0.0000008573183050
  0.6672583489324340  0.5000019018034528  0.1660742356142835
  0.6679029722232034  0.6670473887401399 -0.0000009801433870
  0.6679029173711388 -0.0000016763668433  0.3329541463213100
  0.6672584300235227  0.1660738201620254  0.5000011091191731
  0.6672585169436135  0.8339245542838343  0.5000012064760955
  0.6679030382080741 -0.0000017530183888  0.6670470026586478
  0.6672585235827081  0.5000020232407507  0.8339248738612021
  0.6668810936619313  0.1664508794966483  0.1664512590870203
  0.6668812557544962  0.8335473108897418  0.1664510785307438
  0.6674551587779974  0.3326538421815730  0.3326533890156252
  0.6674551929390327  0.6673479408430482  0.3326534179782081
  0.6668812642243539  0.1664506916855008  0.8335476867641278
  0.6674552466434863  0.3326538028609375  0.6673475355132731
  0.6674552335365151  0.6673480535219443  0.6673476639062124
  0.6668813750536809  0.8335473800789417  0.8335477851115362
  0.6671220004116520 -0.0000018658818249 -0.0000010171217932
  0.6665678242441988  0.5000017497959222  0.5000010270160733
  0.8333332727343536  0.5000020348558828 -0.0000009337988782
  0.8333332447873104 -0.0000017394349286  0.5000012805179145
  0.8333331044612748  0.3329546948773766  0.1654296551526569
  0.8333330484589770  0.6670472864011103  0.1654294939053170
  0.8333330726986771  0.1654292693805473  0.3329542177045450
  0.8333329967828722  0.8345691119186803  0.3329541390459662
  0.8333331010808778  0.1654290726034351  0.6670468813888564
  0.8333331206268272  0.3329545638856252  0.8345694304807982
  0.8333330609380802  0.6670475249726546  0.8345695104809370
  0.8333330745741254  0.8345691923110353  0.6670471601547845
  0.8333329195941220 -0.0000018537898203  0.1662104266384617
  0.8333329877062925  0.1662100556418182 -0.0000010987463630
  0.8333329878883660  0.8337879454864959 -0.0000012016045978
  0.8333330599347112  0.3330885891838573  0.5000009951279568
  0.8333330315329118  0.5000017718993215  0.3330881460515586
  0.8333329813143056  0.6669131586036170  0.5000011175783825
  0.8333330090350859 -0.0000019696503888  0.8337883217676856
  0.8333330374616451  0.5000018811225290  0.6669128112587699
  0.3333371281160151  0.5000018066388184  0.5000013974302612
 
  0.00000000E+00  0.00000000E+00  0.00000000E+00
  0.00000000E+00  0.00000000E+00  0.00000000E+00
  0.00000000E+00  0.00000000E+00  0.00000000E+00
  0.00000000E+00  0.00000000E+00  0.00000000E+00
  0.00000000E+00  0.00000000E+00  0.00000000E+00
  0.00000000E+00  0.00000000E+00  0.00000000E+00
  0.00000000E+00  0.00000000E+00  0.00000000E+00
  0.00000000E+00  0.00000000E+00  0.00000000E+00
  0.00000000E+00  0.00000000E+00  0.00000000E+00
  0.00000000E+00  0.00000000E+00  0.00000000E+00
  0.00000000E+00  0.00000000E+00  0.00000000E+00
  0.00000000E+00  0.00000000E+00  0.00000000E+00
  0.00000000E+00  0.00000000E+00  0.00000000E+00
  0.00000000E+00  0.00000000E+00  0.00000000E+00
  0.00000000E+00  0.00000000E+00  0.00000000E+00
  0.00000000E+00  0.00000000E+00  0.00000000E+00
  0.00000000E+00  0.00000000E+00  0.00000000E+00
  0.00000000E+00  0.00000000E+00  0.00000000E+00
  0.00000000E+00  0.00000000E+00  0.00000000E+00
  0.00000000E+00  0.00000000E+00  0.00000000E+00
  0.00000000E+00  0.00000000E+00  0.00000000E+00
  0.00000000E+00  0.00000000E+00  0.00000000E+00
  0.00000000E+00  0.00000000E+00  0.00000000E+00
  0.00000000E+00  0.00000000E+00  0.00000000E+00
  0.00000000E+00  0.00000000E+00  0.00000000E+00
  0.00000000E+00  0.00000000E+00  0.00000000E+00
  0.00000000E+00  0.00000000E+00  0.00000000E+00
  0.00000000E+00  0.00000000E+00  0.00000000E+00
  0.00000000E+00  0.00000000E+00  0.00000000E+00
  0.00000000E+00  0.00000000E+00  0.00000000E+00
  0.00000000E+00  0.00000000E+00  0.00000000E+00
  0.00000000E+00  0.00000000E+00  0.00000000E+00
  0.00000000E+00  0.00000000E+00  0.00000000E+00
  0.00000000E+00  0.00000000E+00  0.00000000E+00
  0.00000000E+00  0.00000000E+00  0.00000000E+00
  0.00000000E+00  0.00000000E+00  0.00000000E+00
  0.00000000E+00  0.00000000E+00  0.00000000E+00
  0.00000000E+00  0.00000000E+00  0.00000000E+00
  0.00000000E+00  0.00000000E+00  0.00000000E+00
  0.00000000E+00  0.00000000E+00  0.00000000E+00
  0.00000000E+00  0.00000000E+00  0.00000000E+00
  0.00000000E+00  0.00000000E+00  0.00000000E+00
  0.00000000E+00  0.00000000E+00  0.00000000E+00
  0.00000000E+00  0.00000000E+00  0.00000000E+00
  0.00000000E+00  0.00000000E+00  0.00000000E+00
  0.00000000E+00  0.00000000E+00  0.00000000E+00
  0.00000000E+00  0.00000000E+00  0.00000000E+00
  0.00000000E+00  0.00000000E+00  0.00000000E+00
  0.00000000E+00  0.00000000E+00  0.00000000E+00
  0.00000000E+00  0.00000000E+00  0.00000000E+00
  0.00000000E+00  0.00000000E+00  0.00000000E+00
  0.00000000E+00  0.00000000E+00  0.00000000E+00
  0.00000000E+00  0.00000000E+00  0.00000000E+00
  0.00000000E+00  0.00000000E+00  0.00000000E+00
  0.00000000E+00  0.00000000E+00  0.00000000E+00
  0.00000000E+00  0.00000000E+00  0.00000000E+00
  0.00000000E+00  0.00000000E+00  0.00000000E+00
  0.00000000E+00  0.00000000E+00  0.00000000E+00
  0.00000000E+00  0.00000000E+00  0.00000000E+00
  0.00000000E+00  0.00000000E+00  0.00000000E+00
  0.00000000E+00  0.00000000E+00  0.00000000E+00
  0.00000000E+00  0.00000000E+00  0.00000000E+00
  0.00000000E+00  0.00000000E+00  0.00000000E+00
  0.00000000E+00  0.00000000E+00  0.00000000E+00
  0.00000000E+00  0.00000000E+00  0.00000000E+00
  0.00000000E+00  0.00000000E+00  0.00000000E+00
  0.00000000E+00  0.00000000E+00  0.00000000E+00
  0.00000000E+00  0.00000000E+00  0.00000000E+00
  0.00000000E+00  0.00000000E+00  0.00000000E+00
  0.00000000E+00  0.00000000E+00  0.00000000E+00
  0.00000000E+00  0.00000000E+00  0.00000000E+00
  0.00000000E+00  0.00000000E+00  0.00000000E+00
  0.00000000E+00  0.00000000E+00  0.00000000E+00
  0.00000000E+00  0.00000000E+00  0.00000000E+00
  0.00000000E+00  0.00000000E+00  0.00000000E+00
  0.00000000E+00  0.00000000E+00  0.00000000E+00
  0.00000000E+00  0.00000000E+00  0.00000000E+00
  0.00000000E+00  0.00000000E+00  0.00000000E+00
  0.00000000E+00  0.00000000E+00  0.00000000E+00
  0.00000000E+00  0.00000000E+00  0.00000000E+00
  0.00000000E+00  0.00000000E+00  0.00000000E+00
  0.00000000E+00  0.00000000E+00  0.00000000E+00
  0.00000000E+00  0.00000000E+00  0.00000000E+00
  0.00000000E+00  0.00000000E+00  0.00000000E+00
  0.00000000E+00  0.00000000E+00  0.00000000E+00
  0.00000000E+00  0.00000000E+00  0.00000000E+00
  0.00000000E+00  0.00000000E+00  0.00000000E+00
  0.00000000E+00  0.00000000E+00  0.00000000E+00
  0.00000000E+00  0.00000000E+00  0.00000000E+00
  0.00000000E+00  0.00000000E+00  0.00000000E+00
  0.00000000E+00  0.00000000E+00  0.00000000E+00
  0.00000000E+00  0.00000000E+00  0.00000000E+00
  0.00000000E+00  0.00000000E+00  0.00000000E+00
  0.00000000E+00  0.00000000E+00  0.00000000E+00
  0.00000000E+00  0.00000000E+00  0.00000000E+00
  0.00000000E+00  0.00000000E+00  0.00000000E+00
  0.00000000E+00  0.00000000E+00  0.00000000E+00
  0.00000000E+00  0.00000000E+00  0.00000000E+00
  0.00000000E+00  0.00000000E+00  0.00000000E+00
  0.00000000E+00  0.00000000E+00  0.00000000E+00
  0.00000000E+00  0.00000000E+00  0.00000000E+00
  0.00000000E+00  0.00000000E+00  0.00000000E+00
  0.00000000E+00  0.00000000E+00  0.00000000E+00
  0.00000000E+00  0.00000000E+00  0.00000000E+00
  0.00000000E+00  0.00000000E+00  0.00000000E+00
  0.00000000E+00  0.00000000E+00  0.00000000E+00
  0.00000000E+00  0.00000000E+00  0.00000000E+00
  0.00000000E+00  0.00000000E+00  0.00000000E+00
