fcc_Fe_CON_333                          
   1.00000000000000     
    10.3348470473793466    0.0000000000000000    0.0000000000000000
     0.0000000000000000   10.3348470473793466    0.0000000000000000
     0.0000000000000000    0.0000000000000000   10.3348470473793466
   Fe
   107
Direct
 -0.0000006190055547  0.0000009838673343  0.0001656218853242
 -0.0000006644677169  0.1665017137601077  0.1666679476569838
 -0.0000005641977121  0.3337668454875039 -0.0001937283834247
 -0.0000006962591737  0.4999990203426994  0.1666678179257368
 -0.0000006621004969  0.6662321983898857 -0.0001937600527479
 -0.0000006955654882  0.8334992006590197  0.1666680400354811
 -0.0000007374129775  0.0000009445085403  0.3331683410897838
 -0.0000007082253763  0.1668613135596467  0.5004328202477751
 -0.0000006774545208  0.3337668917282126  0.3335279529770723
 -0.0000005847077207  0.4999990091953752  0.5004570577896233
 -0.0000007610910601  0.6662322035127166  0.3335279777721782
 -0.0000006546882781  0.8331396358463032  0.5004328022979154
 -0.0000006604056313  0.0000009427115075  0.6666654123856531
 -0.0000006321766966  0.1668612955893905  0.8328989616913751
 -0.0000005353114162  0.3337900555487688  0.6666653620757308
 -0.0000005198896372  0.4999989514665462  0.8328748233639758
 -0.0000005426197177  0.6662090273670247  0.6666652809402466
 -0.0000005979803332  0.8331397024301016  0.8328989006971208
  0.1665023392185228  0.0000009820486858  0.1666679021451910
  0.1664157795097445  0.1664152247670276  0.0002525267638094
  0.1664157624645957  0.8335858774028884  0.0002525024220317
  0.1665568187856412  0.3331908319915587  0.4998582392799295
  0.1686628719049085  0.4999990077369979  0.3353298093740449
  0.1665566409488255  0.6668083669376255  0.4998581876890473
  0.1668619890562049  0.0000009079119859  0.8328988704739726
  0.1685055118923105  0.4999988754005548  0.6666653328013842
  0.1668617202746179  0.3337666878166953  0.1666677736238835
  0.1668616922815290  0.6662323581371059  0.1666678321284352
  0.1664158253283178  0.1664153002819228  0.3330813467244870
  0.1664157922417455  0.8335857296566981  0.3330814646228699
  0.1686605084138645  0.1686598131041344  0.6666647119241620
  0.1665567435770242  0.3331905094693340  0.8334736436476230
  0.1665565943312722  0.6668086422647566  0.8334736273934358
  0.1686604556214908  0.8313412933454901  0.6666645366163741
  0.1686630369594730  0.4999989410592560 -0.0019955114164713
  0.1668619545039027  0.0000008545257021  0.5004329577120954
  0.3337689740769073  0.0000009759960562 -0.0001938001376785
  0.3337687606015874  0.1668611070525220  0.1666678137920881
  0.3337687601032988  0.8331399215118758  0.1666678186386128
  0.3331933748976617  0.3331911198843751  0.3332232744812927
  0.3331932538931002  0.6668079726016877  0.3332231402731741
  0.3331927260347582  0.1665561646852121  0.8334735741797799
  0.3343083940521472  0.3343048004714098  0.6666681711731706
  0.3343066756171071  0.6656944638130370  0.6666688338136230
  0.3331925686006965  0.8334450834791840  0.8334736147553331
  0.3331931825733532  0.3331910306946728  0.0001112263501487
  0.3337923817233204  0.4999989202542938  0.1666676351160071
  0.3331931622811598  0.6668080531635209  0.0001113591705532
  0.3337690469057408  0.0000009677308229  0.3335279865489160
  0.3331930933871263  0.1665563312840629  0.4998582686309647
  0.3331928696048247  0.8334449236823224  0.4998582078629782
  0.3337922098242540  0.0000009170617208  0.6666654072911341
  0.3343082385326349  0.4999988114795799  0.8323563541216202
  0.5000005077038564  0.0000009839353652  0.1666677912526825
  0.5000003695008495  0.1686624249366347 -0.0019955718751000
  0.5000005034570707  0.3337902394061416  0.1666676767731266
  0.5000004683268147  0.4999988442834966 -0.0018371742839122
  0.5000005529507708  0.6662088047118431  0.1666676388960745
  0.5000004829479298  0.8313386848507673 -0.0019956658157562
  0.5000005501241921  0.0000009297768852  0.5004571195133911
  0.5000004546185476  0.1686623145737476  0.3353298618244856
  0.5000015625431934  0.3343052669692372  0.5009754587187482
  0.5000005552648994  0.4999988389306677  0.3351720953779764
  0.5000022677709147  0.6656924743922342  0.5009752363058703
  0.5000005384464393  0.8313387950334777  0.3353297294319118
  0.5000004401750359  0.0000009337771559  0.8328747860239792
  0.5000004802567155  0.1685049742663733  0.6666653161184759
  0.5000014414508739  0.3343050193843954  0.8323565569212471
  0.5000014390442825  0.6656940610108998  0.8323568388959779
  0.5000004750151470  0.8314965290836398  0.6666652532296063
  0.6668071048355835  0.3331911029808475  0.0001113417067544
  0.6662080569542962  0.4999989729191477  0.1666676817985417
  0.6668072266668427  0.6668080866080879  0.0001115347844276
  0.6662314180997342  0.0000008858687088  0.3335279823507473
  0.6668073335427189  0.1665563007933505  0.4998582752279012
  0.6668075024019648  0.8334450040517900  0.4998581112393328
  0.6662081906375835  0.0000009061869830  0.6666652684946399
  0.6656919853817271  0.4999988029627599  0.8323562904233499
  0.6662316364608101  0.1668610807712425  0.1666678814494582
  0.6662316691397788  0.8331399093646873  0.1666678588002556
  0.6668070263669155  0.3331911926236171  0.3332233081749657
  0.6668072287765670  0.6668079781596326  0.3332231036629426
  0.6668076321509937  0.1665561504095048  0.8334734895440081
  0.6656932224648494  0.3343046046301235  0.6666687245354235
  0.6656935903914711  0.6656944889282219  0.6666686731651001
  0.6668077545819678  0.8334451265907236  0.8334736658634796
  0.6662313698609397  0.0000008692009156 -0.0001937453801709
  0.6656928760808699  0.4999977408592374  0.5009750943658381
  0.8313362418986510  0.4999990377625567 -0.0019954753738025
  0.8331372603633357  0.0000009052712888  0.5004328476016257
  0.8331375384632929  0.3337667135573651  0.1666678967491755
  0.8331375203826056  0.6662323723021570  0.1666679181893959
  0.8335834416699779  0.1664152500803885  0.3330814059318509
  0.8335833803094198  0.8335857010474761  0.3330814598698495
  0.8313388003835357  0.1686596915280855  0.6666645163620482
  0.8334425755614259  0.3331904221865704  0.8334736053894107
  0.8334427543330273  0.6668086980065340  0.8334737235992185
  0.8313388181022577  0.8313413743349423  0.6666643574468079
  0.8334969332765803  0.0000009405196383  0.1666680584532290
  0.8335835680496826  0.1664151712732004  0.0002525706421519
  0.8335834733581600  0.8335858283058989  0.0002525958634535
  0.8334423542365220  0.3331907708868678  0.4998581450215796
  0.8313363601692785  0.4999990815248593  0.3353295801650041
  0.8334425802585737  0.6668083739082360  0.4998579921161337
  0.8331373360903153  0.0000009405782935  0.8328988328133415
  0.8314937529998314  0.4999988733896049  0.6666651876645506
  0.3343111992362183  0.4999988256280323  0.5009760545953685
 
  0.00000000E+00  0.00000000E+00  0.00000000E+00
  0.00000000E+00  0.00000000E+00  0.00000000E+00
  0.00000000E+00  0.00000000E+00  0.00000000E+00
  0.00000000E+00  0.00000000E+00  0.00000000E+00
  0.00000000E+00  0.00000000E+00  0.00000000E+00
  0.00000000E+00  0.00000000E+00  0.00000000E+00
  0.00000000E+00  0.00000000E+00  0.00000000E+00
  0.00000000E+00  0.00000000E+00  0.00000000E+00
  0.00000000E+00  0.00000000E+00  0.00000000E+00
  0.00000000E+00  0.00000000E+00  0.00000000E+00
  0.00000000E+00  0.00000000E+00  0.00000000E+00
  0.00000000E+00  0.00000000E+00  0.00000000E+00
  0.00000000E+00  0.00000000E+00  0.00000000E+00
  0.00000000E+00  0.00000000E+00  0.00000000E+00
  0.00000000E+00  0.00000000E+00  0.00000000E+00
  0.00000000E+00  0.00000000E+00  0.00000000E+00
  0.00000000E+00  0.00000000E+00  0.00000000E+00
  0.00000000E+00  0.00000000E+00  0.00000000E+00
  0.00000000E+00  0.00000000E+00  0.00000000E+00
  0.00000000E+00  0.00000000E+00  0.00000000E+00
  0.00000000E+00  0.00000000E+00  0.00000000E+00
  0.00000000E+00  0.00000000E+00  0.00000000E+00
  0.00000000E+00  0.00000000E+00  0.00000000E+00
  0.00000000E+00  0.00000000E+00  0.00000000E+00
  0.00000000E+00  0.00000000E+00  0.00000000E+00
  0.00000000E+00  0.00000000E+00  0.00000000E+00
  0.00000000E+00  0.00000000E+00  0.00000000E+00
  0.00000000E+00  0.00000000E+00  0.00000000E+00
  0.00000000E+00  0.00000000E+00  0.00000000E+00
  0.00000000E+00  0.00000000E+00  0.00000000E+00
  0.00000000E+00  0.00000000E+00  0.00000000E+00
  0.00000000E+00  0.00000000E+00  0.00000000E+00
  0.00000000E+00  0.00000000E+00  0.00000000E+00
  0.00000000E+00  0.00000000E+00  0.00000000E+00
  0.00000000E+00  0.00000000E+00  0.00000000E+00
  0.00000000E+00  0.00000000E+00  0.00000000E+00
  0.00000000E+00  0.00000000E+00  0.00000000E+00
  0.00000000E+00  0.00000000E+00  0.00000000E+00
  0.00000000E+00  0.00000000E+00  0.00000000E+00
  0.00000000E+00  0.00000000E+00  0.00000000E+00
  0.00000000E+00  0.00000000E+00  0.00000000E+00
  0.00000000E+00  0.00000000E+00  0.00000000E+00
  0.00000000E+00  0.00000000E+00  0.00000000E+00
  0.00000000E+00  0.00000000E+00  0.00000000E+00
  0.00000000E+00  0.00000000E+00  0.00000000E+00
  0.00000000E+00  0.00000000E+00  0.00000000E+00
  0.00000000E+00  0.00000000E+00  0.00000000E+00
  0.00000000E+00  0.00000000E+00  0.00000000E+00
  0.00000000E+00  0.00000000E+00  0.00000000E+00
  0.00000000E+00  0.00000000E+00  0.00000000E+00
  0.00000000E+00  0.00000000E+00  0.00000000E+00
  0.00000000E+00  0.00000000E+00  0.00000000E+00
  0.00000000E+00  0.00000000E+00  0.00000000E+00
  0.00000000E+00  0.00000000E+00  0.00000000E+00
  0.00000000E+00  0.00000000E+00  0.00000000E+00
  0.00000000E+00  0.00000000E+00  0.00000000E+00
  0.00000000E+00  0.00000000E+00  0.00000000E+00
  0.00000000E+00  0.00000000E+00  0.00000000E+00
  0.00000000E+00  0.00000000E+00  0.00000000E+00
  0.00000000E+00  0.00000000E+00  0.00000000E+00
  0.00000000E+00  0.00000000E+00  0.00000000E+00
  0.00000000E+00  0.00000000E+00  0.00000000E+00
  0.00000000E+00  0.00000000E+00  0.00000000E+00
  0.00000000E+00  0.00000000E+00  0.00000000E+00
  0.00000000E+00  0.00000000E+00  0.00000000E+00
  0.00000000E+00  0.00000000E+00  0.00000000E+00
  0.00000000E+00  0.00000000E+00  0.00000000E+00
  0.00000000E+00  0.00000000E+00  0.00000000E+00
  0.00000000E+00  0.00000000E+00  0.00000000E+00
  0.00000000E+00  0.00000000E+00  0.00000000E+00
  0.00000000E+00  0.00000000E+00  0.00000000E+00
  0.00000000E+00  0.00000000E+00  0.00000000E+00
  0.00000000E+00  0.00000000E+00  0.00000000E+00
  0.00000000E+00  0.00000000E+00  0.00000000E+00
  0.00000000E+00  0.00000000E+00  0.00000000E+00
  0.00000000E+00  0.00000000E+00  0.00000000E+00
  0.00000000E+00  0.00000000E+00  0.00000000E+00
  0.00000000E+00  0.00000000E+00  0.00000000E+00
  0.00000000E+00  0.00000000E+00  0.00000000E+00
  0.00000000E+00  0.00000000E+00  0.00000000E+00
  0.00000000E+00  0.00000000E+00  0.00000000E+00
  0.00000000E+00  0.00000000E+00  0.00000000E+00
  0.00000000E+00  0.00000000E+00  0.00000000E+00
  0.00000000E+00  0.00000000E+00  0.00000000E+00
  0.00000000E+00  0.00000000E+00  0.00000000E+00
  0.00000000E+00  0.00000000E+00  0.00000000E+00
  0.00000000E+00  0.00000000E+00  0.00000000E+00
  0.00000000E+00  0.00000000E+00  0.00000000E+00
  0.00000000E+00  0.00000000E+00  0.00000000E+00
  0.00000000E+00  0.00000000E+00  0.00000000E+00
  0.00000000E+00  0.00000000E+00  0.00000000E+00
  0.00000000E+00  0.00000000E+00  0.00000000E+00
  0.00000000E+00  0.00000000E+00  0.00000000E+00
  0.00000000E+00  0.00000000E+00  0.00000000E+00
  0.00000000E+00  0.00000000E+00  0.00000000E+00
  0.00000000E+00  0.00000000E+00  0.00000000E+00
  0.00000000E+00  0.00000000E+00  0.00000000E+00
  0.00000000E+00  0.00000000E+00  0.00000000E+00
  0.00000000E+00  0.00000000E+00  0.00000000E+00
  0.00000000E+00  0.00000000E+00  0.00000000E+00
  0.00000000E+00  0.00000000E+00  0.00000000E+00
  0.00000000E+00  0.00000000E+00  0.00000000E+00
  0.00000000E+00  0.00000000E+00  0.00000000E+00
  0.00000000E+00  0.00000000E+00  0.00000000E+00
  0.00000000E+00  0.00000000E+00  0.00000000E+00
  0.00000000E+00  0.00000000E+00  0.00000000E+00
  0.00000000E+00  0.00000000E+00  0.00000000E+00
