fcc_Fe_CON_333                          
   1.00000000000000     
    10.3431421171721336    0.0000000000000000    0.0000000000000000
     0.0000000000000000   10.3431421171721336    0.0000000000000000
     0.0000000000000000   -0.0000000000000000   10.3431421171721336
   Fe
   108
Direct
  0.0000000000000000  0.0000000000000000  0.0000000000000000
  0.0000000000000000  0.1666689333823115  0.1666689333823115
  0.1666689333823115 -0.0000000000000000  0.1666689333823115
  0.1666689333823115  0.1666689333823115 -0.0000000000000000
  0.3333310622019496  0.0000000000000000  0.0000000000000000
  0.3333310661968696  0.1666689338031304  0.1666689338031304
  0.5000000000000000  0.0000000000000000  0.1666689377980504
  0.5000000000000000  0.1666689377980504 -0.0000000000000000
  0.6666689667980492  0.0000000000000000 -0.0000000000000000
  0.6666689628031293  0.1666689338031304  0.1666689338031304
  0.8333310376176897 -0.0000000000000000  0.1666689333823115
  0.8333310376176897  0.1666689333823115 -0.0000000000000000
  0.0000000000000000  0.3333310622019496  0.0000000000000000
 -0.0000000000000000  0.5000000000000000  0.1666689377980504
  0.1666689338031304  0.3333310661968696  0.1666689338031304
  0.1666689377980504  0.5000000000000000  0.0000000000000000
  0.3333310666176885  0.3333310666176885 -0.0000000000000000
  0.3333310666176885  0.5000000000000000  0.1666689333823115
  0.5000000000000000  0.3333310666176885  0.1666689333823115
  0.5000000000000000  0.5000000000000000  0.0000000000000000
  0.6666689623823103  0.3333310666176885  0.0000000000000000
  0.6666689623823103  0.5000000000000000  0.1666689333823115
  0.8333310371968707  0.3333310661968696  0.1666689338031304
  0.8333310332019508  0.5000000000000000  0.0000000000000000
 -0.0000000000000000  0.6666689667980492  0.0000000000000000
 -0.0000000000000000  0.8333310376176897  0.1666689333823115
  0.1666689338031304  0.6666689628031293  0.1666689338031304
  0.1666689333823115  0.8333310376176897 -0.0000000000000000
  0.3333310666176885  0.6666689623823103 -0.0000000000000000
  0.3333310661968696  0.8333310371968707  0.1666689338031304
  0.5000000000000000  0.6666689623823103  0.1666689333823115
  0.5000000000000000  0.8333310332019508  0.0000000000000000
  0.6666689623823103  0.6666689623823103 -0.0000000000000000
  0.6666689628031293  0.8333310371968707  0.1666689338031304
  0.8333310371968707  0.6666689628031293  0.1666689338031304
  0.8333310376176897  0.8333310376176897 -0.0000000000000000
  0.0000000000000000 -0.0000000000000000  0.3333310622019496
  0.0000000000000000  0.1666689377980504  0.5000000000000000
  0.1666689377980504 -0.0000000000000000  0.5000000000000000
  0.1666689338031304  0.1666689338031304  0.3333310661968696
  0.3333310666176885  0.0000000000000000  0.3333310666176885
  0.3333310666176885  0.1666689333823115  0.5000000000000000
  0.5000000000000000 -0.0000000000000000  0.5000000000000000
  0.5000000000000000  0.1666689333823115  0.3333310666176885
  0.6666689623823103  0.0000000000000000  0.3333310666176885
  0.6666689623823103  0.1666689333823115  0.5000000000000000
  0.8333310332019508 -0.0000000000000000  0.5000000000000000
  0.8333310371968707  0.1666689338031304  0.3333310661968696
  0.0000000000000000  0.3333310666176885  0.3333310666176885
  0.0000000000000000  0.5000000000000000  0.5000000000000000
  0.1666689333823115  0.3333310666176885  0.5000000000000000
  0.1666689333823115  0.5000000000000000  0.3333310666176885
  0.3333310661968696  0.3333310661968696  0.3333310661968696
  0.3333310622019496  0.5000000000000000  0.5000000000000000
  0.5000000000000000  0.3333310622019496  0.5000000000000000
  0.5000000000000000  0.5000000000000000  0.3333310622019496
  0.6666689628031293  0.3333310661968696  0.3333310661968696
  0.6666689667980492  0.5000000000000000  0.5000000000000000
  0.8333310376176897  0.3333310666176885  0.5000000000000000
  0.8333310376176897  0.5000000000000000  0.3333310666176885
  0.0000000000000000  0.6666689623823103  0.3333310666176885
  0.0000000000000000  0.8333310332019508  0.5000000000000000
  0.1666689333823115  0.6666689623823103  0.5000000000000000
  0.1666689338031304  0.8333310371968707  0.3333310661968696
  0.3333310661968696  0.6666689628031293  0.3333310661968696
  0.3333310666176885  0.8333310376176897  0.5000000000000000
  0.5000000000000000  0.6666689667980492  0.5000000000000000
  0.5000000000000000  0.8333310376176897  0.3333310666176885
  0.6666689628031293  0.6666689628031293  0.3333310661968696
  0.6666689623823103  0.8333310376176897  0.5000000000000000
  0.8333310376176897  0.6666689623823103  0.5000000000000000
  0.8333310371968707  0.8333310371968707  0.3333310661968696
 -0.0000000000000000 -0.0000000000000000  0.6666689667980492
 -0.0000000000000000  0.1666689333823115  0.8333310376176897
  0.1666689333823115  0.0000000000000000  0.8333310376176897
  0.1666689338031304  0.1666689338031304  0.6666689628031293
  0.3333310666176885  0.0000000000000000  0.6666689623823103
  0.3333310661968696  0.1666689338031304  0.8333310371968707
  0.5000000000000000 -0.0000000000000000  0.8333310332019508
  0.5000000000000000  0.1666689333823115  0.6666689623823103
  0.6666689623823103  0.0000000000000000  0.6666689623823103
  0.6666689628031293  0.1666689338031304  0.8333310371968707
  0.8333310376176897  0.0000000000000000  0.8333310376176897
  0.8333310371968707  0.1666689338031304  0.6666689628031293
  0.0000000000000000  0.3333310666176885  0.6666689623823103
 -0.0000000000000000  0.5000000000000000  0.8333310332019508
  0.1666689338031304  0.3333310661968696  0.8333310371968707
  0.1666689333823115  0.5000000000000000  0.6666689623823103
  0.3333310661968696  0.3333310661968696  0.6666689628031293
  0.3333310666176885  0.5000000000000000  0.8333310376176897
  0.5000000000000000  0.3333310666176885  0.8333310376176897
  0.5000000000000000  0.5000000000000000  0.6666689667980492
  0.6666689628031293  0.3333310661968696  0.6666689628031293
  0.6666689623823103  0.5000000000000000  0.8333310376176897
  0.8333310371968707  0.3333310661968696  0.8333310371968707
  0.8333310376176897  0.5000000000000000  0.6666689623823103
 -0.0000000000000000  0.6666689623823103  0.6666689623823103
 -0.0000000000000000  0.8333310376176897  0.8333310376176897
  0.1666689338031304  0.6666689628031293  0.8333310371968707
  0.1666689338031304  0.8333310371968707  0.6666689628031293
  0.3333310661968696  0.6666689628031293  0.6666689628031293
  0.3333310661968696  0.8333310371968707  0.8333310371968707
  0.5000000000000000  0.6666689623823103  0.8333310376176897
  0.5000000000000000  0.8333310376176897  0.6666689623823103
  0.6666689628031293  0.6666689628031293  0.6666689628031293
  0.6666689628031293  0.8333310371968707  0.8333310371968707
  0.8333310371968707  0.6666689628031293  0.8333310371968707
  0.8333310371968707  0.8333310371968707  0.6666689628031293
 
  0.00000000E+00  0.00000000E+00  0.00000000E+00
  0.00000000E+00  0.00000000E+00  0.00000000E+00
  0.00000000E+00  0.00000000E+00  0.00000000E+00
  0.00000000E+00  0.00000000E+00  0.00000000E+00
  0.00000000E+00  0.00000000E+00  0.00000000E+00
  0.00000000E+00  0.00000000E+00  0.00000000E+00
  0.00000000E+00  0.00000000E+00  0.00000000E+00
  0.00000000E+00  0.00000000E+00  0.00000000E+00
  0.00000000E+00  0.00000000E+00  0.00000000E+00
  0.00000000E+00  0.00000000E+00  0.00000000E+00
  0.00000000E+00  0.00000000E+00  0.00000000E+00
  0.00000000E+00  0.00000000E+00  0.00000000E+00
  0.00000000E+00  0.00000000E+00  0.00000000E+00
  0.00000000E+00  0.00000000E+00  0.00000000E+00
  0.00000000E+00  0.00000000E+00  0.00000000E+00
  0.00000000E+00  0.00000000E+00  0.00000000E+00
  0.00000000E+00  0.00000000E+00  0.00000000E+00
  0.00000000E+00  0.00000000E+00  0.00000000E+00
  0.00000000E+00  0.00000000E+00  0.00000000E+00
  0.00000000E+00  0.00000000E+00  0.00000000E+00
  0.00000000E+00  0.00000000E+00  0.00000000E+00
  0.00000000E+00  0.00000000E+00  0.00000000E+00
  0.00000000E+00  0.00000000E+00  0.00000000E+00
  0.00000000E+00  0.00000000E+00  0.00000000E+00
  0.00000000E+00  0.00000000E+00  0.00000000E+00
  0.00000000E+00  0.00000000E+00  0.00000000E+00
  0.00000000E+00  0.00000000E+00  0.00000000E+00
  0.00000000E+00  0.00000000E+00  0.00000000E+00
  0.00000000E+00  0.00000000E+00  0.00000000E+00
  0.00000000E+00  0.00000000E+00  0.00000000E+00
  0.00000000E+00  0.00000000E+00  0.00000000E+00
  0.00000000E+00  0.00000000E+00  0.00000000E+00
  0.00000000E+00  0.00000000E+00  0.00000000E+00
  0.00000000E+00  0.00000000E+00  0.00000000E+00
  0.00000000E+00  0.00000000E+00  0.00000000E+00
  0.00000000E+00  0.00000000E+00  0.00000000E+00
  0.00000000E+00  0.00000000E+00  0.00000000E+00
  0.00000000E+00  0.00000000E+00  0.00000000E+00
  0.00000000E+00  0.00000000E+00  0.00000000E+00
  0.00000000E+00  0.00000000E+00  0.00000000E+00
  0.00000000E+00  0.00000000E+00  0.00000000E+00
  0.00000000E+00  0.00000000E+00  0.00000000E+00
  0.00000000E+00  0.00000000E+00  0.00000000E+00
  0.00000000E+00  0.00000000E+00  0.00000000E+00
  0.00000000E+00  0.00000000E+00  0.00000000E+00
  0.00000000E+00  0.00000000E+00  0.00000000E+00
  0.00000000E+00  0.00000000E+00  0.00000000E+00
  0.00000000E+00  0.00000000E+00  0.00000000E+00
  0.00000000E+00  0.00000000E+00  0.00000000E+00
  0.00000000E+00  0.00000000E+00  0.00000000E+00
  0.00000000E+00  0.00000000E+00  0.00000000E+00
  0.00000000E+00  0.00000000E+00  0.00000000E+00
  0.00000000E+00  0.00000000E+00  0.00000000E+00
  0.00000000E+00  0.00000000E+00  0.00000000E+00
  0.00000000E+00  0.00000000E+00  0.00000000E+00
  0.00000000E+00  0.00000000E+00  0.00000000E+00
  0.00000000E+00  0.00000000E+00  0.00000000E+00
  0.00000000E+00  0.00000000E+00  0.00000000E+00
  0.00000000E+00  0.00000000E+00  0.00000000E+00
  0.00000000E+00  0.00000000E+00  0.00000000E+00
  0.00000000E+00  0.00000000E+00  0.00000000E+00
  0.00000000E+00  0.00000000E+00  0.00000000E+00
  0.00000000E+00  0.00000000E+00  0.00000000E+00
  0.00000000E+00  0.00000000E+00  0.00000000E+00
  0.00000000E+00  0.00000000E+00  0.00000000E+00
  0.00000000E+00  0.00000000E+00  0.00000000E+00
  0.00000000E+00  0.00000000E+00  0.00000000E+00
  0.00000000E+00  0.00000000E+00  0.00000000E+00
  0.00000000E+00  0.00000000E+00  0.00000000E+00
  0.00000000E+00  0.00000000E+00  0.00000000E+00
  0.00000000E+00  0.00000000E+00  0.00000000E+00
  0.00000000E+00  0.00000000E+00  0.00000000E+00
  0.00000000E+00  0.00000000E+00  0.00000000E+00
  0.00000000E+00  0.00000000E+00  0.00000000E+00
  0.00000000E+00  0.00000000E+00  0.00000000E+00
  0.00000000E+00  0.00000000E+00  0.00000000E+00
  0.00000000E+00  0.00000000E+00  0.00000000E+00
  0.00000000E+00  0.00000000E+00  0.00000000E+00
  0.00000000E+00  0.00000000E+00  0.00000000E+00
  0.00000000E+00  0.00000000E+00  0.00000000E+00
  0.00000000E+00  0.00000000E+00  0.00000000E+00
  0.00000000E+00  0.00000000E+00  0.00000000E+00
  0.00000000E+00  0.00000000E+00  0.00000000E+00
  0.00000000E+00  0.00000000E+00  0.00000000E+00
  0.00000000E+00  0.00000000E+00  0.00000000E+00
  0.00000000E+00  0.00000000E+00  0.00000000E+00
  0.00000000E+00  0.00000000E+00  0.00000000E+00
  0.00000000E+00  0.00000000E+00  0.00000000E+00
  0.00000000E+00  0.00000000E+00  0.00000000E+00
  0.00000000E+00  0.00000000E+00  0.00000000E+00
  0.00000000E+00  0.00000000E+00  0.00000000E+00
  0.00000000E+00  0.00000000E+00  0.00000000E+00
  0.00000000E+00  0.00000000E+00  0.00000000E+00
  0.00000000E+00  0.00000000E+00  0.00000000E+00
  0.00000000E+00  0.00000000E+00  0.00000000E+00
  0.00000000E+00  0.00000000E+00  0.00000000E+00
  0.00000000E+00  0.00000000E+00  0.00000000E+00
  0.00000000E+00  0.00000000E+00  0.00000000E+00
  0.00000000E+00  0.00000000E+00  0.00000000E+00
  0.00000000E+00  0.00000000E+00  0.00000000E+00
  0.00000000E+00  0.00000000E+00  0.00000000E+00
  0.00000000E+00  0.00000000E+00  0.00000000E+00
  0.00000000E+00  0.00000000E+00  0.00000000E+00
  0.00000000E+00  0.00000000E+00  0.00000000E+00
  0.00000000E+00  0.00000000E+00  0.00000000E+00
  0.00000000E+00  0.00000000E+00  0.00000000E+00
  0.00000000E+00  0.00000000E+00  0.00000000E+00
  0.00000000E+00  0.00000000E+00  0.00000000E+00
