pymatgen generated KPOINTS with grid density = 1074 / atom
0
Monkhorst
7 7 7

