fcc_Fe_CON_333                          
   1.00000000000000     
    10.3348470473793466    0.0000000000000000    0.0000000000000000
     0.0000000000000000   10.3348470473793466    0.0000000000000000
     0.0000000000000000    0.0000000000000000   10.3348470473793466
   Fe
   108
Direct
  0.0000000000000000  0.0000000000000000  0.0000000000000000
  0.0000000000000000  0.1666689329999969  0.1666689329999969
  0.0000000000000000  0.3333310619999992  0.0000000000000000
  0.0000000000000000  0.5000000000000000  0.1666689380000008
  0.0000000000000000  0.6666689669999997  0.0000000000000000
  0.0000000000000000  0.8333310379999972  0.1666689329999969
  0.0000000000000000  0.0000000000000000  0.3333310619999992
  0.0000000000000000  0.1666689380000008  0.5000000000000000
  0.0000000000000000  0.3333310670000031  0.3333310670000031
  0.0000000000000000  0.5000000000000000  0.5000000000000000
  0.0000000000000000  0.6666689620000028  0.3333310670000031
  0.0000000000000000  0.8333310330000003  0.5000000000000000
  0.0000000000000000  0.0000000000000000  0.6666689669999997
  0.0000000000000000  0.1666689329999969  0.8333310379999972
  0.0000000000000000  0.3333310670000031  0.6666689620000028
  0.0000000000000000  0.5000000000000000  0.8333310330000003
  0.0000000000000000  0.6666689620000028  0.6666689620000028
  0.0000000000000000  0.8333310379999972  0.8333310379999972
  0.1666689329999969  0.0000000000000000  0.1666689329999969
  0.1666689329999969  0.1666689329999969  0.0000000000000000
  0.1666689329999969  0.8333310379999972  0.0000000000000000
  0.1666689329999969  0.3333310670000031  0.5000000000000000
  0.1666689329999969  0.5000000000000000  0.3333310670000031
  0.1666689329999969  0.6666689620000028  0.5000000000000000
  0.1666689329999969  0.0000000000000000  0.8333310379999972
  0.1666689329999969  0.5000000000000000  0.6666689620000028
  0.1666689340000005  0.3333310659999995  0.1666689340000005
  0.1666689340000005  0.6666689629999993  0.1666689340000005
  0.1666689340000005  0.1666689340000005  0.3333310659999995
  0.1666689340000005  0.8333310370000007  0.3333310659999995
  0.1666689340000005  0.1666689340000005  0.6666689629999993
  0.1666689340000005  0.3333310659999995  0.8333310370000007
  0.1666689340000005  0.6666689629999993  0.8333310370000007
  0.1666689340000005  0.8333310370000007  0.6666689629999993
  0.1666689380000008  0.5000000000000000  0.0000000000000000
  0.1666689380000008  0.0000000000000000  0.5000000000000000
  0.3333310619999992  0.0000000000000000  0.0000000000000000
  0.3333310619999992  0.5000000000000000  0.5000000000000000
  0.3333310659999995  0.1666689340000005  0.1666689340000005
  0.3333310659999995  0.8333310370000007  0.1666689340000005
  0.3333310659999995  0.3333310659999995  0.3333310659999995
  0.3333310659999995  0.6666689629999993  0.3333310659999995
  0.3333310659999995  0.1666689340000005  0.8333310370000007
  0.3333310659999995  0.3333310659999995  0.6666689629999993
  0.3333310659999995  0.6666689629999993  0.6666689629999993
  0.3333310659999995  0.8333310370000007  0.8333310370000007
  0.3333310670000031  0.3333310670000031  0.0000000000000000
  0.3333310670000031  0.5000000000000000  0.1666689329999969
  0.3333310670000031  0.6666689620000028  0.0000000000000000
  0.3333310670000031  0.0000000000000000  0.3333310670000031
  0.3333310670000031  0.1666689329999969  0.5000000000000000
  0.3333310670000031  0.8333310379999972  0.5000000000000000
  0.3333310670000031  0.0000000000000000  0.6666689620000028
  0.3333310670000031  0.5000000000000000  0.8333310379999972
  0.5000000000000000  0.0000000000000000  0.1666689380000008
  0.5000000000000000  0.1666689380000008  0.0000000000000000
  0.5000000000000000  0.3333310670000031  0.1666689329999969
  0.5000000000000000  0.5000000000000000  0.0000000000000000
  0.5000000000000000  0.6666689620000028  0.1666689329999969
  0.5000000000000000  0.8333310330000003  0.0000000000000000
  0.5000000000000000  0.0000000000000000  0.5000000000000000
  0.5000000000000000  0.1666689329999969  0.3333310670000031
  0.5000000000000000  0.3333310619999992  0.5000000000000000
  0.5000000000000000  0.5000000000000000  0.3333310619999992
  0.5000000000000000  0.6666689669999997  0.5000000000000000
  0.5000000000000000  0.8333310379999972  0.3333310670000031
  0.5000000000000000  0.0000000000000000  0.8333310330000003
  0.5000000000000000  0.1666689329999969  0.6666689620000028
  0.5000000000000000  0.3333310670000031  0.8333310379999972
  0.5000000000000000  0.5000000000000000  0.6666689669999997
  0.5000000000000000  0.6666689620000028  0.8333310379999972
  0.5000000000000000  0.8333310379999972  0.6666689620000028
  0.6666689620000028  0.3333310670000031  0.0000000000000000
  0.6666689620000028  0.5000000000000000  0.1666689329999969
  0.6666689620000028  0.6666689620000028  0.0000000000000000
  0.6666689620000028  0.0000000000000000  0.3333310670000031
  0.6666689620000028  0.1666689329999969  0.5000000000000000
  0.6666689620000028  0.8333310379999972  0.5000000000000000
  0.6666689620000028  0.0000000000000000  0.6666689620000028
  0.6666689620000028  0.5000000000000000  0.8333310379999972
  0.6666689629999993  0.1666689340000005  0.1666689340000005
  0.6666689629999993  0.8333310370000007  0.1666689340000005
  0.6666689629999993  0.3333310659999995  0.3333310659999995
  0.6666689629999993  0.6666689629999993  0.3333310659999995
  0.6666689629999993  0.1666689340000005  0.8333310370000007
  0.6666689629999993  0.3333310659999995  0.6666689629999993
  0.6666689629999993  0.6666689629999993  0.6666689629999993
  0.6666689629999993  0.8333310370000007  0.8333310370000007
  0.6666689669999997  0.0000000000000000  0.0000000000000000
  0.6666689669999997  0.5000000000000000  0.5000000000000000
  0.8333310330000003  0.5000000000000000  0.0000000000000000
  0.8333310330000003  0.0000000000000000  0.5000000000000000
  0.8333310370000007  0.3333310659999995  0.1666689340000005
  0.8333310370000007  0.6666689629999993  0.1666689340000005
  0.8333310370000007  0.1666689340000005  0.3333310659999995
  0.8333310370000007  0.8333310370000007  0.3333310659999995
  0.8333310370000007  0.1666689340000005  0.6666689629999993
  0.8333310370000007  0.3333310659999995  0.8333310370000007
  0.8333310370000007  0.6666689629999993  0.8333310370000007
  0.8333310370000007  0.8333310370000007  0.6666689629999993
  0.8333310379999972  0.0000000000000000  0.1666689329999969
  0.8333310379999972  0.1666689329999969  0.0000000000000000
  0.8333310379999972  0.8333310379999972  0.0000000000000000
  0.8333310379999972  0.3333310670000031  0.5000000000000000
  0.8333310379999972  0.5000000000000000  0.3333310670000031
  0.8333310379999972  0.6666689620000028  0.5000000000000000
  0.8333310379999972  0.0000000000000000  0.8333310379999972
  0.8333310379999972  0.5000000000000000  0.6666689620000028
 
  0.00000000E+00  0.00000000E+00  0.00000000E+00
  0.00000000E+00  0.00000000E+00  0.00000000E+00
  0.00000000E+00  0.00000000E+00  0.00000000E+00
  0.00000000E+00  0.00000000E+00  0.00000000E+00
  0.00000000E+00  0.00000000E+00  0.00000000E+00
  0.00000000E+00  0.00000000E+00  0.00000000E+00
  0.00000000E+00  0.00000000E+00  0.00000000E+00
  0.00000000E+00  0.00000000E+00  0.00000000E+00
  0.00000000E+00  0.00000000E+00  0.00000000E+00
  0.00000000E+00  0.00000000E+00  0.00000000E+00
  0.00000000E+00  0.00000000E+00  0.00000000E+00
  0.00000000E+00  0.00000000E+00  0.00000000E+00
  0.00000000E+00  0.00000000E+00  0.00000000E+00
  0.00000000E+00  0.00000000E+00  0.00000000E+00
  0.00000000E+00  0.00000000E+00  0.00000000E+00
  0.00000000E+00  0.00000000E+00  0.00000000E+00
  0.00000000E+00  0.00000000E+00  0.00000000E+00
  0.00000000E+00  0.00000000E+00  0.00000000E+00
  0.00000000E+00  0.00000000E+00  0.00000000E+00
  0.00000000E+00  0.00000000E+00  0.00000000E+00
  0.00000000E+00  0.00000000E+00  0.00000000E+00
  0.00000000E+00  0.00000000E+00  0.00000000E+00
  0.00000000E+00  0.00000000E+00  0.00000000E+00
  0.00000000E+00  0.00000000E+00  0.00000000E+00
  0.00000000E+00  0.00000000E+00  0.00000000E+00
  0.00000000E+00  0.00000000E+00  0.00000000E+00
  0.00000000E+00  0.00000000E+00  0.00000000E+00
  0.00000000E+00  0.00000000E+00  0.00000000E+00
  0.00000000E+00  0.00000000E+00  0.00000000E+00
  0.00000000E+00  0.00000000E+00  0.00000000E+00
  0.00000000E+00  0.00000000E+00  0.00000000E+00
  0.00000000E+00  0.00000000E+00  0.00000000E+00
  0.00000000E+00  0.00000000E+00  0.00000000E+00
  0.00000000E+00  0.00000000E+00  0.00000000E+00
  0.00000000E+00  0.00000000E+00  0.00000000E+00
  0.00000000E+00  0.00000000E+00  0.00000000E+00
  0.00000000E+00  0.00000000E+00  0.00000000E+00
  0.00000000E+00  0.00000000E+00  0.00000000E+00
  0.00000000E+00  0.00000000E+00  0.00000000E+00
  0.00000000E+00  0.00000000E+00  0.00000000E+00
  0.00000000E+00  0.00000000E+00  0.00000000E+00
  0.00000000E+00  0.00000000E+00  0.00000000E+00
  0.00000000E+00  0.00000000E+00  0.00000000E+00
  0.00000000E+00  0.00000000E+00  0.00000000E+00
  0.00000000E+00  0.00000000E+00  0.00000000E+00
  0.00000000E+00  0.00000000E+00  0.00000000E+00
  0.00000000E+00  0.00000000E+00  0.00000000E+00
  0.00000000E+00  0.00000000E+00  0.00000000E+00
  0.00000000E+00  0.00000000E+00  0.00000000E+00
  0.00000000E+00  0.00000000E+00  0.00000000E+00
  0.00000000E+00  0.00000000E+00  0.00000000E+00
  0.00000000E+00  0.00000000E+00  0.00000000E+00
  0.00000000E+00  0.00000000E+00  0.00000000E+00
  0.00000000E+00  0.00000000E+00  0.00000000E+00
  0.00000000E+00  0.00000000E+00  0.00000000E+00
  0.00000000E+00  0.00000000E+00  0.00000000E+00
  0.00000000E+00  0.00000000E+00  0.00000000E+00
  0.00000000E+00  0.00000000E+00  0.00000000E+00
  0.00000000E+00  0.00000000E+00  0.00000000E+00
  0.00000000E+00  0.00000000E+00  0.00000000E+00
  0.00000000E+00  0.00000000E+00  0.00000000E+00
  0.00000000E+00  0.00000000E+00  0.00000000E+00
  0.00000000E+00  0.00000000E+00  0.00000000E+00
  0.00000000E+00  0.00000000E+00  0.00000000E+00
  0.00000000E+00  0.00000000E+00  0.00000000E+00
  0.00000000E+00  0.00000000E+00  0.00000000E+00
  0.00000000E+00  0.00000000E+00  0.00000000E+00
  0.00000000E+00  0.00000000E+00  0.00000000E+00
  0.00000000E+00  0.00000000E+00  0.00000000E+00
  0.00000000E+00  0.00000000E+00  0.00000000E+00
  0.00000000E+00  0.00000000E+00  0.00000000E+00
  0.00000000E+00  0.00000000E+00  0.00000000E+00
  0.00000000E+00  0.00000000E+00  0.00000000E+00
  0.00000000E+00  0.00000000E+00  0.00000000E+00
  0.00000000E+00  0.00000000E+00  0.00000000E+00
  0.00000000E+00  0.00000000E+00  0.00000000E+00
  0.00000000E+00  0.00000000E+00  0.00000000E+00
  0.00000000E+00  0.00000000E+00  0.00000000E+00
  0.00000000E+00  0.00000000E+00  0.00000000E+00
  0.00000000E+00  0.00000000E+00  0.00000000E+00
  0.00000000E+00  0.00000000E+00  0.00000000E+00
  0.00000000E+00  0.00000000E+00  0.00000000E+00
  0.00000000E+00  0.00000000E+00  0.00000000E+00
  0.00000000E+00  0.00000000E+00  0.00000000E+00
  0.00000000E+00  0.00000000E+00  0.00000000E+00
  0.00000000E+00  0.00000000E+00  0.00000000E+00
  0.00000000E+00  0.00000000E+00  0.00000000E+00
  0.00000000E+00  0.00000000E+00  0.00000000E+00
  0.00000000E+00  0.00000000E+00  0.00000000E+00
  0.00000000E+00  0.00000000E+00  0.00000000E+00
  0.00000000E+00  0.00000000E+00  0.00000000E+00
  0.00000000E+00  0.00000000E+00  0.00000000E+00
  0.00000000E+00  0.00000000E+00  0.00000000E+00
  0.00000000E+00  0.00000000E+00  0.00000000E+00
  0.00000000E+00  0.00000000E+00  0.00000000E+00
  0.00000000E+00  0.00000000E+00  0.00000000E+00
  0.00000000E+00  0.00000000E+00  0.00000000E+00
  0.00000000E+00  0.00000000E+00  0.00000000E+00
  0.00000000E+00  0.00000000E+00  0.00000000E+00
  0.00000000E+00  0.00000000E+00  0.00000000E+00
  0.00000000E+00  0.00000000E+00  0.00000000E+00
  0.00000000E+00  0.00000000E+00  0.00000000E+00
  0.00000000E+00  0.00000000E+00  0.00000000E+00
  0.00000000E+00  0.00000000E+00  0.00000000E+00
  0.00000000E+00  0.00000000E+00  0.00000000E+00
  0.00000000E+00  0.00000000E+00  0.00000000E+00
  0.00000000E+00  0.00000000E+00  0.00000000E+00
  0.00000000E+00  0.00000000E+00  0.00000000E+00
