fcc_Fe_CON_333                          
   1.00000000000000     
    10.3348470473793466    0.0000000000000000    0.0000000000000000
     0.0000000000000000   10.3348470473793466    0.0000000000000000
     0.0000000000000000    0.0000000000000000   10.3348470473793466
   Fe
   107
Direct
  0.0000006568229042 -0.0000008707970607  0.0001657922004348
  0.0000006528519257  0.1665016152839858  0.1666684668182753
  0.0000005992246852  0.3337684239545037 -0.0001937427884358
  0.0000006045532691  0.5000007917971772  0.1666681799168850
  0.0000005304851202  0.6662323468936953 -0.0001937502426012
  0.0000005727285119  0.8334975689173115  0.1666684410938754
  0.0000006150312740 -0.0000008024295397  0.3331686464644974
  0.0000005635892368  0.1668612745768826  0.5004326735991961
  0.0000005348438493  0.3337683083205014  0.3335283984661814
  0.0000004912283971  0.5000007869563797  0.5004571008167915
  0.0000005608626475  0.6662323988540267  0.3335283181104090
  0.0000005807162735  0.8331378954714153  0.5004326489748537
  0.0000006634681800 -0.0000007965098534  0.6666648455701584
  0.0000006416201323  0.1668613257235193  0.8328985326339079
  0.0000004991564771  0.3337917343856622  0.6666648478736442
  0.0000005112723929  0.5000008290618102  0.8328743654183040
  0.0000005281300096  0.6662089634637492  0.6666648565551750
  0.0000005635609222  0.8331378062969985  0.8328985921824396
  0.1665020481127735 -0.0000007902703675  0.1666684171605405
  0.1664156400743837  0.1664150914803338  0.0002525339145252
  0.1664155535060833  0.8335840447735422  0.0002525631438622
  0.1665564579057965  0.3331924397853430  0.4998581393181871
  0.1686624950983614  0.5000007640971804  0.3353299649724883
  0.1665565619961300  0.6668081982130785  0.4998581913618928
  0.1668618211778430 -0.0000007560729671  0.8328985250974539
  0.1685050433479620  0.5000008792057988  0.6666648655816864
  0.1668614748928008  0.3337682130415338  0.1666682236642010
  0.1668613776318696  0.6662324784220817  0.1666682191064741
  0.1664156101238251  0.1664150801634040  0.3330818082728100
  0.1664155671876916  0.8335840414247252  0.3330818310718532
  0.1686600085013327  0.1686593810814544  0.6666641850812002
  0.1665563769429043  0.3331921788349238  0.8334732436620212
  0.1665564582374877  0.6668084485712891  0.8334731807957025
  0.1686600251531543  0.8313396839960373  0.6666640534155736
  0.1686626780356766  0.5000007497786807 -0.0019952999558506
  0.1668617340966669 -0.0000007617367963  0.5004327293122436
  0.3337674559002671 -0.0000007597803631 -0.0001937635786938
  0.3337672791142361  0.1668609978524359  0.1666682360005455
  0.3337672747297810  0.8331382041457140  0.1666682145482365
  0.3331918870752397  0.3331927049491712  0.3332235808515656
  0.3331919052693823  0.6668079144835071  0.3332237264759987
  0.3331913030886449  0.1665558297169909  0.8334732409243482
  0.3343052938981680  0.3343063358646922  0.6666684044451944
  0.3343055090199976  0.6656943485708640  0.6666683608781374
  0.3331914020618350  0.8334431465161565  0.8334731541905894
  0.3331918053036560  0.3331926599385696  0.0001113735753944
  0.3337907909665780  0.5000007539220576  0.1666679495341043
  0.3331918805547187  0.6668079812400970  0.0001112223750781
  0.3337674055265569 -0.0000007488725884  0.3335283936997279
  0.3331915948964332  0.1665559352086145  0.4998581299628279
  0.3331916602238432  0.8334430488037542  0.4998582164742077
  0.3337907667253869 -0.0000007583073773  0.6666648799414329
  0.3343044755273453  0.5000008820918384  0.8323569210872518
  0.4999994222848204 -0.0000007880273992  0.1666682054117374
  0.4999993528096757  0.1686622508478002 -0.0019954242917774
  0.4999993538991049  0.3337917367692342  0.1666679693027907
  0.4999993719924151  0.5000008764159678 -0.0018369937573776
  0.4999994437651891  0.6662089532667799  0.1666679247096928
  0.4999994250691978  0.8313368367544243 -0.0019955599657133
  0.4999993761677974 -0.0000007274776467  0.5004570950193773
  0.4999994350982816  0.1686620751791058  0.3353301227974237
  0.4999993863404607  0.3343104008747350  0.5009758286962627
  0.4999993917251107  0.5000008422083242  0.3351723389259867
  0.4999986362928494  0.6656916049667155  0.5009758367454114
  0.4999994206402675  0.8313370418192408  0.3353299844287347
  0.4999993270279168 -0.0000007538926864  0.8328743491077240
  0.4999993354834737  0.1685043267482596  0.6666648219067280
  0.4999993310921830  0.3343074889713617  0.8323561857145438
  0.4999993947412740  0.6656931878023984  0.8323558947164957
  0.4999993135175702  0.8314944503203719  0.6666648063728665
  0.6668076513547434  0.3331927159398955  0.0001114302817800
  0.6662086365829497  0.5000008380605083  0.1666679295617857
  0.6668076371025891  0.6668079916884431  0.0001112890956585
  0.6662320199552009 -0.0000007287563665  0.3335283533692778
  0.6668078859180238  0.1665559333976845  0.4998580532150718
  0.6668078111698594  0.8334430592547694  0.4998581613048187
  0.6662085995380677 -0.0000007281219615  0.6666648032660530
  0.6656939606726177  0.5000020004358308  0.8323564772158980
  0.6662320994768643  0.1668609725733407  0.1666682986964030
  0.6662321877699199  0.8331381503586456  0.1666681937049294
  0.6668076249266682  0.3331926723698097  0.3332236052134557
  0.6668075811147164  0.6668079216361175  0.3332236552256863
  0.6668081134050470  0.1665558071931072  0.8334732429097712
  0.6656942241017954  0.3343062859668390  0.6666682836627476
  0.6656939872241664  0.6656943693806684  0.6666683189419822
  0.6668080926551285  0.8334430953825198  0.8334732257779103
  0.6662319338896805 -0.0000008339469572 -0.0001937449585248
  0.6656937173073656  0.5000019129603465  0.5009750967000431
  0.8313379368443037  0.5000008165515263 -0.0019954893565130
  0.8331388922590731 -0.0000007470876479  0.5004326632505754
  0.8331391667167191  0.3337682698883738  0.1666682792134485
  0.8331391774242620  0.6662325086333428  0.1666681853079342
  0.8335850021238033  0.1664151575049148  0.3330819148094049
  0.8335850519911693  0.8335839802245887  0.3330818204091025
  0.8313406400516851  0.1686595361922608  0.6666639866312335
  0.8334443650380646  0.3331922426197542  0.8334732190629467
  0.8334442095814066  0.6668084616025801  0.8334732224329200
  0.8313406600977957  0.8313395722328357  0.6666639435695131
  0.8334985127454333 -0.0000008723201258  0.1666685041191526
  0.8335850436267278  0.1664151272785827  0.0002525379933259
  0.8335850626639344  0.8335839423630220  0.0002525934083986
  0.8334442186356251  0.3331924472107911  0.4998580941556325
  0.8313381083756062  0.5000007463338770  0.3353299379526555
  0.8334441210610170  0.6668081759994993  0.4998581650484325
  0.8331388395839697 -0.0000008318082550  0.8328985249648156
  0.8314956949904697  0.5000008596242778  0.6666647834852582
  0.3343058220249222  0.5000019262809984  0.5009752574893045
 
  0.00000000E+00  0.00000000E+00  0.00000000E+00
  0.00000000E+00  0.00000000E+00  0.00000000E+00
  0.00000000E+00  0.00000000E+00  0.00000000E+00
  0.00000000E+00  0.00000000E+00  0.00000000E+00
  0.00000000E+00  0.00000000E+00  0.00000000E+00
  0.00000000E+00  0.00000000E+00  0.00000000E+00
  0.00000000E+00  0.00000000E+00  0.00000000E+00
  0.00000000E+00  0.00000000E+00  0.00000000E+00
  0.00000000E+00  0.00000000E+00  0.00000000E+00
  0.00000000E+00  0.00000000E+00  0.00000000E+00
  0.00000000E+00  0.00000000E+00  0.00000000E+00
  0.00000000E+00  0.00000000E+00  0.00000000E+00
  0.00000000E+00  0.00000000E+00  0.00000000E+00
  0.00000000E+00  0.00000000E+00  0.00000000E+00
  0.00000000E+00  0.00000000E+00  0.00000000E+00
  0.00000000E+00  0.00000000E+00  0.00000000E+00
  0.00000000E+00  0.00000000E+00  0.00000000E+00
  0.00000000E+00  0.00000000E+00  0.00000000E+00
  0.00000000E+00  0.00000000E+00  0.00000000E+00
  0.00000000E+00  0.00000000E+00  0.00000000E+00
  0.00000000E+00  0.00000000E+00  0.00000000E+00
  0.00000000E+00  0.00000000E+00  0.00000000E+00
  0.00000000E+00  0.00000000E+00  0.00000000E+00
  0.00000000E+00  0.00000000E+00  0.00000000E+00
  0.00000000E+00  0.00000000E+00  0.00000000E+00
  0.00000000E+00  0.00000000E+00  0.00000000E+00
  0.00000000E+00  0.00000000E+00  0.00000000E+00
  0.00000000E+00  0.00000000E+00  0.00000000E+00
  0.00000000E+00  0.00000000E+00  0.00000000E+00
  0.00000000E+00  0.00000000E+00  0.00000000E+00
  0.00000000E+00  0.00000000E+00  0.00000000E+00
  0.00000000E+00  0.00000000E+00  0.00000000E+00
  0.00000000E+00  0.00000000E+00  0.00000000E+00
  0.00000000E+00  0.00000000E+00  0.00000000E+00
  0.00000000E+00  0.00000000E+00  0.00000000E+00
  0.00000000E+00  0.00000000E+00  0.00000000E+00
  0.00000000E+00  0.00000000E+00  0.00000000E+00
  0.00000000E+00  0.00000000E+00  0.00000000E+00
  0.00000000E+00  0.00000000E+00  0.00000000E+00
  0.00000000E+00  0.00000000E+00  0.00000000E+00
  0.00000000E+00  0.00000000E+00  0.00000000E+00
  0.00000000E+00  0.00000000E+00  0.00000000E+00
  0.00000000E+00  0.00000000E+00  0.00000000E+00
  0.00000000E+00  0.00000000E+00  0.00000000E+00
  0.00000000E+00  0.00000000E+00  0.00000000E+00
  0.00000000E+00  0.00000000E+00  0.00000000E+00
  0.00000000E+00  0.00000000E+00  0.00000000E+00
  0.00000000E+00  0.00000000E+00  0.00000000E+00
  0.00000000E+00  0.00000000E+00  0.00000000E+00
  0.00000000E+00  0.00000000E+00  0.00000000E+00
  0.00000000E+00  0.00000000E+00  0.00000000E+00
  0.00000000E+00  0.00000000E+00  0.00000000E+00
  0.00000000E+00  0.00000000E+00  0.00000000E+00
  0.00000000E+00  0.00000000E+00  0.00000000E+00
  0.00000000E+00  0.00000000E+00  0.00000000E+00
  0.00000000E+00  0.00000000E+00  0.00000000E+00
  0.00000000E+00  0.00000000E+00  0.00000000E+00
  0.00000000E+00  0.00000000E+00  0.00000000E+00
  0.00000000E+00  0.00000000E+00  0.00000000E+00
  0.00000000E+00  0.00000000E+00  0.00000000E+00
  0.00000000E+00  0.00000000E+00  0.00000000E+00
  0.00000000E+00  0.00000000E+00  0.00000000E+00
  0.00000000E+00  0.00000000E+00  0.00000000E+00
  0.00000000E+00  0.00000000E+00  0.00000000E+00
  0.00000000E+00  0.00000000E+00  0.00000000E+00
  0.00000000E+00  0.00000000E+00  0.00000000E+00
  0.00000000E+00  0.00000000E+00  0.00000000E+00
  0.00000000E+00  0.00000000E+00  0.00000000E+00
  0.00000000E+00  0.00000000E+00  0.00000000E+00
  0.00000000E+00  0.00000000E+00  0.00000000E+00
  0.00000000E+00  0.00000000E+00  0.00000000E+00
  0.00000000E+00  0.00000000E+00  0.00000000E+00
  0.00000000E+00  0.00000000E+00  0.00000000E+00
  0.00000000E+00  0.00000000E+00  0.00000000E+00
  0.00000000E+00  0.00000000E+00  0.00000000E+00
  0.00000000E+00  0.00000000E+00  0.00000000E+00
  0.00000000E+00  0.00000000E+00  0.00000000E+00
  0.00000000E+00  0.00000000E+00  0.00000000E+00
  0.00000000E+00  0.00000000E+00  0.00000000E+00
  0.00000000E+00  0.00000000E+00  0.00000000E+00
  0.00000000E+00  0.00000000E+00  0.00000000E+00
  0.00000000E+00  0.00000000E+00  0.00000000E+00
  0.00000000E+00  0.00000000E+00  0.00000000E+00
  0.00000000E+00  0.00000000E+00  0.00000000E+00
  0.00000000E+00  0.00000000E+00  0.00000000E+00
  0.00000000E+00  0.00000000E+00  0.00000000E+00
  0.00000000E+00  0.00000000E+00  0.00000000E+00
  0.00000000E+00  0.00000000E+00  0.00000000E+00
  0.00000000E+00  0.00000000E+00  0.00000000E+00
  0.00000000E+00  0.00000000E+00  0.00000000E+00
  0.00000000E+00  0.00000000E+00  0.00000000E+00
  0.00000000E+00  0.00000000E+00  0.00000000E+00
  0.00000000E+00  0.00000000E+00  0.00000000E+00
  0.00000000E+00  0.00000000E+00  0.00000000E+00
  0.00000000E+00  0.00000000E+00  0.00000000E+00
  0.00000000E+00  0.00000000E+00  0.00000000E+00
  0.00000000E+00  0.00000000E+00  0.00000000E+00
  0.00000000E+00  0.00000000E+00  0.00000000E+00
  0.00000000E+00  0.00000000E+00  0.00000000E+00
  0.00000000E+00  0.00000000E+00  0.00000000E+00
  0.00000000E+00  0.00000000E+00  0.00000000E+00
  0.00000000E+00  0.00000000E+00  0.00000000E+00
  0.00000000E+00  0.00000000E+00  0.00000000E+00
  0.00000000E+00  0.00000000E+00  0.00000000E+00
  0.00000000E+00  0.00000000E+00  0.00000000E+00
  0.00000000E+00  0.00000000E+00  0.00000000E+00
  0.00000000E+00  0.00000000E+00  0.00000000E+00
