Fe                                      
   1.00000000000000     
    10.3348470473793004    0.0000000000000000    0.0000000000000000
     0.0000000000000000   10.3348470473793004    0.0000000000000000
     0.0000000000000000    0.0000000000000000   10.3348470473793004
   Fe
   107
Selective Dynamics
Direct
  0.9999603181300732  0.0000000592039533  0.0000398804248760 F F F
  0.9995116325032759  0.1663744591284121  0.1661778497670899 F F F
 -0.0003503025078500  0.3345897316471357  1.0003503783029142 F F F
  0.0026385690301910  0.4999998106175189  0.1693044627677294 F F F
 -0.0003504563304593  0.6654101431844121  1.0003502241802111 F F F
  0.9995116226143607  0.8336255930920028  0.1661778851157178 F F F
  0.0006054527360367  0.0000000742820208  0.3334328485695970 F F F
  0.0021825375997045  0.1699133078551437  0.5000640294610557 F F F
  0.9995608329091187  0.3332846387197235  0.3334175963237151 F F F
  0.0015380587217639  0.4999998793450546  0.4999871295000455 F F F
  0.9995608354956171  0.6667152780650114  0.3334175383378008 F F F
  0.0021825893044102  0.8300867369218031  0.5000639397274207 F F F
 -0.0017729931658746  0.0000001459648016  0.6664984350725702 F F F
  0.9994895952571990  0.1669621756416173  0.8334746248152550 F F F
  1.0010643519349183  0.3346367771429964  0.6668027040464721 F F F
  0.0031803602582241  0.4999998957300462  0.8312574935871602 F F F
  1.0010645311169928  0.6653631105951412  0.6668025747404064 F F F
  0.9994895235197103  0.8330378067083248  0.8334746477011589 F F F
  0.1667667728732135  0.0000000931660120  0.1672717794333808 F F F
  0.1665263629063228  0.1669624569718464  0.0005104441289297 F F F
  0.1665263188559150  0.8330375657416050  0.0005102618773506 F F F
  0.1688172260310159  0.3350287625034958  0.5001016086817749 F F F
  0.1662690695839771  0.4999999762567540  0.3329346656949125 F F F
  0.1688172891333494  0.6649712741989001  0.5001016148084783 F F F
  0.1664024926500181  0.0000001868598731  0.8335981637676174 F F F
  0.1714222682141695  0.4999997659943936  0.6639012329102625 F F F
  0.1667517957985809  0.3332844760121244  0.1662268994504539 F F F
  0.1667516252689723  0.6667154123563890  0.1662267048725048 F F F
  0.1658654222687919  0.1667224601457141  0.3325312979534467 F F F
  0.1658654195173841  0.8332775552637963  0.3325313005415756 F F F
  0.1644906629493856  0.1650521764907480  0.6669499083942478 F F F
  0.1664660186705299  0.3323187021807637  0.8335348591054699 F F F
  0.1664660895999012  0.6676811299627501  0.8335348466872200 F F F
  0.1644905489752313  0.8349481525325159  0.6669501636578907 F F F
  0.1687433764237120  0.4999999105201334  0.9968194897855319 F F F
  0.1648620611653934  0.0000000396564692  0.4999489193831326 F F F
  0.3335023784170572  0.0000001599283309  1.0017724614110470 F F F
  0.3333976628700457  0.1699131414382726  0.1688485253725987 F F F
  0.3333975960153572  0.8300869468734136  0.1688481458862419 F F F
  0.3334350610876444  0.3350281164586910  0.3354826772765611 F F F
  0.3334349202913028  0.6649723748035870  0.3354818903276507 F F F
  0.3330508898726660  0.1650522079813412  0.8355099470197628 F F F
  0.3307665083890298  0.3193513025941279  0.6692345251783832 F F F
  0.3307661123697041  0.6806486830204123  0.6692346320191427 F F F
  0.3330508807183598  0.8349478119770953  0.8355100111173871 F F F
  0.3331992682106439  0.3346371863816206 -0.0010646046033364 F F F
  0.3333205069298838  0.4999998309737627  0.1682044898864771 F F F
  0.3331992908823233  0.6653625947206223 -0.0010648106179670 F F F
  0.3332816272176338  0.0000000014072986  0.3315250604037992 F F F
  0.3319645563459766  0.1659368130000239  0.4986306843790536 F F F
  0.3319644532089314  0.8340631262223006  0.4986307657289125 F F F
  0.3332207964115405 -0.0000000395451190  0.6667804238193618 F F F
  0.3360998357784709  0.4999997592929193  0.8285780109612811 F F F
  0.4998313588364419  0.0000000357704239  0.1648933861561028 F F F
  0.4999362586272553  0.1699133368362100  0.9978174544995529 F F F
  0.5001351314367238  0.3346373289757200  0.1677305935386865 F F F
  0.5000134230212266  0.4999999047178143  0.9984612824820314 F F F
  0.5001351607651037  0.6653626404021491  0.1677305413464342 F F F
  0.4999362943649932  0.8300866199949022  0.9978173197377820 F F F
  0.5001131522355770 -0.0000000346153199  0.4998869608127250 F F F
  0.5002827691267522  0.1650524548696578  0.3311567718611585 F F F
  0.5025672195127391  0.3193519179916562  0.4974329737553118 F F F
  0.4972334774910339  0.4999999675594660  0.3380887160953487 F F F
  0.5025670359505510  0.6806481901687234  0.4974327641692523 F F F
  0.5002826763057778  0.8349475532150236  0.3311567476137018 F F F
  0.5000522365381078 -0.0000000180955904  0.8351415082300335 F F F
  0.5013694837593723  0.1659370112795990  0.6680366129492000 F F F
  0.4998987479690967  0.3350284756986026  0.8311832802663486 F F F
  0.4998986258052193  0.6649714276552113  0.8311830900515664 F F F
  0.5013693130868219  0.8340629398104832  0.6680366188142596 F F F
  0.6665816599835190  0.3332845769658694  0.0004388304753357 F F F
  0.6645901064849794  0.4999999472777569  0.1698465496286377 F F F
  0.6665817581417711  0.6667153264591932  0.0004387432961319 F F F
  0.6669307046660911  0.0000000067328207  0.3330685055572778 F F F
  0.6688424236360729  0.1650522910139154  0.4997173374680370 F F F
  0.6688424274059394  0.8349477398713692  0.4997173962265884 F F F
  0.6684726777906358  0.0000006216247918  0.6667191002461237 F F F
  0.6670641994977633  0.4999999246839783  0.8337314018494231 F F F
  0.6668072430172926  0.1669625168933474  0.1661558650436894 F F F
  0.6668072492259204  0.8330374533785776  0.1661558605582177 F F F
  0.6668672918408031  0.3323191513595482  0.3331321165138756 F F F
  0.6668673163026935  0.6676808939766747  0.3331321849023459 F F F
  0.6674677872549932  0.1667227068669774  0.8341352289996795 F F F
  0.6645165890294430  0.3350284371282334  0.6665658397884027 F F F
  0.6645164855827742  0.6649715355018265  0.6665655980497441 F F F
  0.6674677744386093  0.8332772915265038  0.8341351405595852 F F F
  0.6665667335750157  0.0000000332641478  0.9993944215191035 F F F
  0.6619108658028959  0.4999999702230980  0.5027665486906506 F F F
  0.8306943967745525  0.4999998127563072  0.9973613196019085 F F F
  0.8351051883303486  0.0000001992081250  0.5001686392991278 F F F
  0.8336832863859506  0.3345898488635987  0.1663157393417978 F F F
  0.8336833246976407  0.6654100559311552  0.1663156497784207 F F F
  0.8338433653267595  0.1669624358245239  0.3331921082949237 F F F
  0.8338433803826942  0.8330376117806468  0.3331920613899915 F F F
  0.8311503195589515  0.1699132204076614  0.6666034023882357 F F F
  0.8337719706733693  0.3332846081963443  0.8332488736652069 F F F
  0.8337719749967037  0.6667153505172484  0.8332488588219573 F F F
  0.8311504476750775  0.8300867993629921  0.6666032844556830 F F F
  0.8333727577549978  0.0000000609406631  0.1666263328308838 F F F
  0.8338211679685427  0.1663744446083321  0.0004882600877622 F F F
  0.8338210708006848  0.8336256312167105  0.0004883589811432 F F F
  0.8322685604290736  0.3346369222760620  0.4998648811893069 F F F
  0.8301525689416998  0.4999999036284521  0.3354093620952128 F F F
  0.8322686156397807  0.6653631175837077  0.4998647615602467 F F F
  0.8327272790872384  0.0000000367528228  0.8332338917092400 F F F
  0.8317948167418664  0.4999999477109986  0.6666801861878817 F F F
  0.4166660075794714  0.5000000772621253  0.5833337782133682 T T T
 
  0.00000000E+00  0.00000000E+00  0.00000000E+00
  0.00000000E+00  0.00000000E+00  0.00000000E+00
  0.00000000E+00  0.00000000E+00  0.00000000E+00
  0.00000000E+00  0.00000000E+00  0.00000000E+00
  0.00000000E+00  0.00000000E+00  0.00000000E+00
  0.00000000E+00  0.00000000E+00  0.00000000E+00
  0.00000000E+00  0.00000000E+00  0.00000000E+00
  0.00000000E+00  0.00000000E+00  0.00000000E+00
  0.00000000E+00  0.00000000E+00  0.00000000E+00
  0.00000000E+00  0.00000000E+00  0.00000000E+00
  0.00000000E+00  0.00000000E+00  0.00000000E+00
  0.00000000E+00  0.00000000E+00  0.00000000E+00
  0.00000000E+00  0.00000000E+00  0.00000000E+00
  0.00000000E+00  0.00000000E+00  0.00000000E+00
  0.00000000E+00  0.00000000E+00  0.00000000E+00
  0.00000000E+00  0.00000000E+00  0.00000000E+00
  0.00000000E+00  0.00000000E+00  0.00000000E+00
  0.00000000E+00  0.00000000E+00  0.00000000E+00
  0.00000000E+00  0.00000000E+00  0.00000000E+00
  0.00000000E+00  0.00000000E+00  0.00000000E+00
  0.00000000E+00  0.00000000E+00  0.00000000E+00
  0.00000000E+00  0.00000000E+00  0.00000000E+00
  0.00000000E+00  0.00000000E+00  0.00000000E+00
  0.00000000E+00  0.00000000E+00  0.00000000E+00
  0.00000000E+00  0.00000000E+00  0.00000000E+00
  0.00000000E+00  0.00000000E+00  0.00000000E+00
  0.00000000E+00  0.00000000E+00  0.00000000E+00
  0.00000000E+00  0.00000000E+00  0.00000000E+00
  0.00000000E+00  0.00000000E+00  0.00000000E+00
  0.00000000E+00  0.00000000E+00  0.00000000E+00
  0.00000000E+00  0.00000000E+00  0.00000000E+00
  0.00000000E+00  0.00000000E+00  0.00000000E+00
  0.00000000E+00  0.00000000E+00  0.00000000E+00
  0.00000000E+00  0.00000000E+00  0.00000000E+00
  0.00000000E+00  0.00000000E+00  0.00000000E+00
  0.00000000E+00  0.00000000E+00  0.00000000E+00
  0.00000000E+00  0.00000000E+00  0.00000000E+00
  0.00000000E+00  0.00000000E+00  0.00000000E+00
  0.00000000E+00  0.00000000E+00  0.00000000E+00
  0.00000000E+00  0.00000000E+00  0.00000000E+00
  0.00000000E+00  0.00000000E+00  0.00000000E+00
  0.00000000E+00  0.00000000E+00  0.00000000E+00
  0.00000000E+00  0.00000000E+00  0.00000000E+00
  0.00000000E+00  0.00000000E+00  0.00000000E+00
  0.00000000E+00  0.00000000E+00  0.00000000E+00
  0.00000000E+00  0.00000000E+00  0.00000000E+00
  0.00000000E+00  0.00000000E+00  0.00000000E+00
  0.00000000E+00  0.00000000E+00  0.00000000E+00
  0.00000000E+00  0.00000000E+00  0.00000000E+00
  0.00000000E+00  0.00000000E+00  0.00000000E+00
  0.00000000E+00  0.00000000E+00  0.00000000E+00
  0.00000000E+00  0.00000000E+00  0.00000000E+00
  0.00000000E+00  0.00000000E+00  0.00000000E+00
  0.00000000E+00  0.00000000E+00  0.00000000E+00
  0.00000000E+00  0.00000000E+00  0.00000000E+00
  0.00000000E+00  0.00000000E+00  0.00000000E+00
  0.00000000E+00  0.00000000E+00  0.00000000E+00
  0.00000000E+00  0.00000000E+00  0.00000000E+00
  0.00000000E+00  0.00000000E+00  0.00000000E+00
  0.00000000E+00  0.00000000E+00  0.00000000E+00
  0.00000000E+00  0.00000000E+00  0.00000000E+00
  0.00000000E+00  0.00000000E+00  0.00000000E+00
  0.00000000E+00  0.00000000E+00  0.00000000E+00
  0.00000000E+00  0.00000000E+00  0.00000000E+00
  0.00000000E+00  0.00000000E+00  0.00000000E+00
  0.00000000E+00  0.00000000E+00  0.00000000E+00
  0.00000000E+00  0.00000000E+00  0.00000000E+00
  0.00000000E+00  0.00000000E+00  0.00000000E+00
  0.00000000E+00  0.00000000E+00  0.00000000E+00
  0.00000000E+00  0.00000000E+00  0.00000000E+00
  0.00000000E+00  0.00000000E+00  0.00000000E+00
  0.00000000E+00  0.00000000E+00  0.00000000E+00
  0.00000000E+00  0.00000000E+00  0.00000000E+00
  0.00000000E+00  0.00000000E+00  0.00000000E+00
  0.00000000E+00  0.00000000E+00  0.00000000E+00
  0.00000000E+00  0.00000000E+00  0.00000000E+00
  0.00000000E+00  0.00000000E+00  0.00000000E+00
  0.00000000E+00  0.00000000E+00  0.00000000E+00
  0.00000000E+00  0.00000000E+00  0.00000000E+00
  0.00000000E+00  0.00000000E+00  0.00000000E+00
  0.00000000E+00  0.00000000E+00  0.00000000E+00
  0.00000000E+00  0.00000000E+00  0.00000000E+00
  0.00000000E+00  0.00000000E+00  0.00000000E+00
  0.00000000E+00  0.00000000E+00  0.00000000E+00
  0.00000000E+00  0.00000000E+00  0.00000000E+00
  0.00000000E+00  0.00000000E+00  0.00000000E+00
  0.00000000E+00  0.00000000E+00  0.00000000E+00
  0.00000000E+00  0.00000000E+00  0.00000000E+00
  0.00000000E+00  0.00000000E+00  0.00000000E+00
  0.00000000E+00  0.00000000E+00  0.00000000E+00
  0.00000000E+00  0.00000000E+00  0.00000000E+00
  0.00000000E+00  0.00000000E+00  0.00000000E+00
  0.00000000E+00  0.00000000E+00  0.00000000E+00
  0.00000000E+00  0.00000000E+00  0.00000000E+00
  0.00000000E+00  0.00000000E+00  0.00000000E+00
  0.00000000E+00  0.00000000E+00  0.00000000E+00
  0.00000000E+00  0.00000000E+00  0.00000000E+00
  0.00000000E+00  0.00000000E+00  0.00000000E+00
  0.00000000E+00  0.00000000E+00  0.00000000E+00
  0.00000000E+00  0.00000000E+00  0.00000000E+00
  0.00000000E+00  0.00000000E+00  0.00000000E+00
  0.00000000E+00  0.00000000E+00  0.00000000E+00
  0.00000000E+00  0.00000000E+00  0.00000000E+00
  0.00000000E+00  0.00000000E+00  0.00000000E+00
  0.00000000E+00  0.00000000E+00  0.00000000E+00
  0.00000000E+00  0.00000000E+00  0.00000000E+00
  0.00000000E+00  0.00000000E+00  0.00000000E+00
