fcc_Fe_CON_333                          
   1.00000000000000     
    10.3348470473793466    0.0000000000000000    0.0000000000000000
     0.0000000000000000   10.3348470473793466    0.0000000000000000
     0.0000000000000000    0.0000000000000000   10.3348470473793466
   Fe   Te
   106     1
Direct
 -0.0001054499809633  0.0001714578953111 -0.0001716134715953
 -0.0004309735821816  0.1664078369117864  0.1670517982361471
 -0.0009556059883795  0.3327553754347128 -0.0001705527076580
 -0.0006199533020743  0.4997477467413133  0.1661699708409170
 -0.0036582801220318  0.6670518971218632  0.0021814835021861
 -0.0001950917801050  0.8334790636733116  0.1665208788376842
 -0.0036583278331036 -0.0021816201128121  0.3329479769953902
 -0.0007256468790201  0.1660374332363621  0.4995807834285010
 -0.0034806720074307  0.3352271643019643  0.3328847346491620
  0.0003395689153440  0.4997243924948477  0.5002755249277624
 -0.0026318869284281  0.6671190767954865  0.3328808890960700
 -0.0006199528488068  0.8338299894882133  0.5002522152735625
 -0.0009556579997524  0.0001704843142057  0.6672445009099904
 -0.0001753163705761  0.1662812174126579  0.8337185283123126
 -0.0004233832847035  0.3323105063485588  0.6676892682598997
 -0.0007252452416742  0.5004190532868205  0.8339622209275334
 -0.0034804111509570  0.6671150022371407  0.6647728859276031
 -0.0004309842549205  0.8329480622561104  0.8335920680349631
  0.1662799122085526 -0.0004401361626359  0.1659964708597001
  0.1660816616919291  0.1653761830430644 -0.0001381130739890
  0.1662799240251962  0.8340033532427493  0.0004401078060384
  0.1576153589567330  0.3247769712713542  0.4996490808160067
  0.1579175394361467  0.5003887982882373  0.3247616939605754
  0.1579175197125298  0.6752382076803269  0.4996111450739406
  0.1660821068127269  0.0001375413779378  0.8346232933435366
  0.1576154324111335  0.5003504735651289  0.6752227099991157
  0.1660939308425793  0.3331922084914382  0.1664275346856977
  0.1660470130161697  0.6674394683656781  0.1663450563185701
  0.1665508694161887  0.1662501743939501  0.3325407689824088
  0.1660469986544302  0.8336549624302805  0.3325605426886482
  0.1660670802127570  0.1658939808344786  0.6674704265481561
  0.1660671222621173  0.3325294372443557  0.8341058969482837
  0.1665508267133356  0.6674587566613449  0.8337494485165280
  0.1660939431000747  0.8335721887790238  0.6668075803864044
  0.1666445742486721  0.5004719769368875  0.0005372185247719
  0.1666445899249395 -0.0005372402229119  0.4995279591000269
  0.3329186641673954  0.0003701113278586 -0.0003700476589553
  0.3337303594222102  0.1662085885420066  0.1666563729159070
  0.3334725988878033  0.8340870628082627  0.1659130111958932
  0.3347876869179914  0.3259935502852284  0.3250148251929607
  0.3349959087102102  0.6756022181035697  0.3243978490654170
  0.3331842285214156  0.1660909087645129  0.8339089987561512
  0.3333088140826105  0.3246644176383596  0.6753354805482082
  0.3347890535899745  0.6749856069173693  0.6740069857851710
  0.3337304606977833  0.8333434597182302  0.8337913910491299
  0.3328420303173598  0.3328443986635142  0.0000050764386562
  0.3333673249871922  0.4999888261711868  0.1668014974933437
  0.3350572224395938  0.6669663449845021  0.0019438149439328
  0.3350572498612356 -0.0019437780643190  0.3330336952346790
  0.3334156715932985  0.1667732693762118  0.4997332281815395
  0.3333673166851320  0.8331984956341312  0.5000111201160370
  0.3328421213193390 -0.0000051080179680  0.6671553816259184
  0.3334156770635672  0.5002667694645206  0.8332267514208225
  0.5001995007441538  0.0002692549976954  0.1650159898497720
  0.5006791648011474  0.1657937571675919  0.0006304094772336
  0.5004307275156962  0.3324108657569986  0.1659518583839833
  0.5000271366211373  0.4998628174152085  0.0000599104332426
  0.5025966104278268  0.6674531265280150  0.1668242459120410
  0.5001994852014977  0.8349840816210147 -0.0002691588969254
  0.5000272212581828 -0.0000598843461934  0.5001371113002532
  0.5008568211811630  0.1661265165303700  0.3326076918132932
  0.5082681339339803  0.3242286992196000  0.5001209097057886
  0.5144035835129315  0.5058942983276038  0.3245057179218192
  0.5144035713103750  0.6754942321976245  0.4941057311472352
  0.5025966342219179  0.8331758349200579  0.3325469778657528
  0.5006792307622726 -0.0006304102912443  0.8342062496089198
  0.5009030694131382  0.1659371535532068  0.6670710579481124
  0.5009029868550022  0.3329289332784199  0.8340628081100013
  0.5008569327750996  0.6673922509373952  0.8338735979273001
  0.5004307564479643  0.8340480962869901  0.6675891608769396
  0.6678143437089612  0.3344998279548480  0.0015481011578598
  0.6671793472159044  0.5004292735805704  0.1656264187309430
  0.6679547047373168  0.6671520954227895  0.0013754093408238
  0.6679546693607699 -0.0013753650436513  0.3328479508811059
  0.6672932537026510  0.1664163256601434  0.4996262574790978
  0.6671796273891616  0.8343739960638066  0.4995723275736836
  0.6678147540258103 -0.0015465541763944  0.6655008016919852
  0.6672932491657065  0.5003737782704241  0.8335837199319753
  0.6668859605922114  0.1665288285135658  0.1669176596032406
  0.6667347118854957  0.8325429894500074  0.1674569800514273
  0.6672165081613536  0.3337699364091368  0.3327955318993748
  0.5082681138041483  0.4998791325487569  0.6757713176009672
  0.6669079017540597  0.1662734237475386  0.8337265192304144
  0.6671779163579729  0.3338706457824206  0.6661293694082907
  0.6672164993915218  0.6672044625900090  0.6662300949468084
  0.6668859345363205  0.8330822756715328  0.8334711774636639
  0.6669945645153673 -0.0020239730034344  0.0020238908044176
  0.6660589445047093  0.4999496360686246  0.5000503558660696
  0.8334786795892717  0.4999163008965251 -0.0000381401558323
  0.8334786034748748  0.0000380050014385  0.5000836512297249
  0.8335812572508163  0.3327580563662991  0.1651865992259489
  0.8310669376902324  0.6669921586040972  0.1671791829465403
  0.8330189010263591  0.1653186616141394  0.3330522903033499
  0.8310668783998849  0.8328207262004039  0.3330077535350571
  0.8328285179521828  0.1653810113811074  0.6668997884706069
  0.8328286093335594  0.3331000191641738  0.8346188273961938
  0.8330189914398645  0.6669476118063756  0.8346813082356096
  0.8335813460521320  0.8348133388265949  0.6672420111291991
  0.8334519144989889  0.0001712917020102  0.1662339702783343
  0.8330449669258714  0.1660954446904107  0.0002952319074555
  0.8334518705357579  0.8337659197073263 -0.0001712959320862
  0.8333561036654799  0.3327529666681930  0.5003570729707524
  0.8311335368468383  0.5012962013116360  0.3333171256212932
  0.8311336049801739  0.6666828967418496  0.4987038163805737
  0.8330450065257490 -0.0002952968782112  0.8339045041884822
  0.8333561963238135  0.4996428719133330  0.6672470097769495
  0.3341710204246623  0.5006159032955295  0.4993839566752706
 
  0.00000000E+00  0.00000000E+00  0.00000000E+00
  0.00000000E+00  0.00000000E+00  0.00000000E+00
  0.00000000E+00  0.00000000E+00  0.00000000E+00
  0.00000000E+00  0.00000000E+00  0.00000000E+00
  0.00000000E+00  0.00000000E+00  0.00000000E+00
  0.00000000E+00  0.00000000E+00  0.00000000E+00
  0.00000000E+00  0.00000000E+00  0.00000000E+00
  0.00000000E+00  0.00000000E+00  0.00000000E+00
  0.00000000E+00  0.00000000E+00  0.00000000E+00
  0.00000000E+00  0.00000000E+00  0.00000000E+00
  0.00000000E+00  0.00000000E+00  0.00000000E+00
  0.00000000E+00  0.00000000E+00  0.00000000E+00
  0.00000000E+00  0.00000000E+00  0.00000000E+00
  0.00000000E+00  0.00000000E+00  0.00000000E+00
  0.00000000E+00  0.00000000E+00  0.00000000E+00
  0.00000000E+00  0.00000000E+00  0.00000000E+00
  0.00000000E+00  0.00000000E+00  0.00000000E+00
  0.00000000E+00  0.00000000E+00  0.00000000E+00
  0.00000000E+00  0.00000000E+00  0.00000000E+00
  0.00000000E+00  0.00000000E+00  0.00000000E+00
  0.00000000E+00  0.00000000E+00  0.00000000E+00
  0.00000000E+00  0.00000000E+00  0.00000000E+00
  0.00000000E+00  0.00000000E+00  0.00000000E+00
  0.00000000E+00  0.00000000E+00  0.00000000E+00
  0.00000000E+00  0.00000000E+00  0.00000000E+00
  0.00000000E+00  0.00000000E+00  0.00000000E+00
  0.00000000E+00  0.00000000E+00  0.00000000E+00
  0.00000000E+00  0.00000000E+00  0.00000000E+00
  0.00000000E+00  0.00000000E+00  0.00000000E+00
  0.00000000E+00  0.00000000E+00  0.00000000E+00
  0.00000000E+00  0.00000000E+00  0.00000000E+00
  0.00000000E+00  0.00000000E+00  0.00000000E+00
  0.00000000E+00  0.00000000E+00  0.00000000E+00
  0.00000000E+00  0.00000000E+00  0.00000000E+00
  0.00000000E+00  0.00000000E+00  0.00000000E+00
  0.00000000E+00  0.00000000E+00  0.00000000E+00
  0.00000000E+00  0.00000000E+00  0.00000000E+00
  0.00000000E+00  0.00000000E+00  0.00000000E+00
  0.00000000E+00  0.00000000E+00  0.00000000E+00
  0.00000000E+00  0.00000000E+00  0.00000000E+00
  0.00000000E+00  0.00000000E+00  0.00000000E+00
  0.00000000E+00  0.00000000E+00  0.00000000E+00
  0.00000000E+00  0.00000000E+00  0.00000000E+00
  0.00000000E+00  0.00000000E+00  0.00000000E+00
  0.00000000E+00  0.00000000E+00  0.00000000E+00
  0.00000000E+00  0.00000000E+00  0.00000000E+00
  0.00000000E+00  0.00000000E+00  0.00000000E+00
  0.00000000E+00  0.00000000E+00  0.00000000E+00
  0.00000000E+00  0.00000000E+00  0.00000000E+00
  0.00000000E+00  0.00000000E+00  0.00000000E+00
  0.00000000E+00  0.00000000E+00  0.00000000E+00
  0.00000000E+00  0.00000000E+00  0.00000000E+00
  0.00000000E+00  0.00000000E+00  0.00000000E+00
  0.00000000E+00  0.00000000E+00  0.00000000E+00
  0.00000000E+00  0.00000000E+00  0.00000000E+00
  0.00000000E+00  0.00000000E+00  0.00000000E+00
  0.00000000E+00  0.00000000E+00  0.00000000E+00
  0.00000000E+00  0.00000000E+00  0.00000000E+00
  0.00000000E+00  0.00000000E+00  0.00000000E+00
  0.00000000E+00  0.00000000E+00  0.00000000E+00
  0.00000000E+00  0.00000000E+00  0.00000000E+00
  0.00000000E+00  0.00000000E+00  0.00000000E+00
  0.00000000E+00  0.00000000E+00  0.00000000E+00
  0.00000000E+00  0.00000000E+00  0.00000000E+00
  0.00000000E+00  0.00000000E+00  0.00000000E+00
  0.00000000E+00  0.00000000E+00  0.00000000E+00
  0.00000000E+00  0.00000000E+00  0.00000000E+00
  0.00000000E+00  0.00000000E+00  0.00000000E+00
  0.00000000E+00  0.00000000E+00  0.00000000E+00
  0.00000000E+00  0.00000000E+00  0.00000000E+00
  0.00000000E+00  0.00000000E+00  0.00000000E+00
  0.00000000E+00  0.00000000E+00  0.00000000E+00
  0.00000000E+00  0.00000000E+00  0.00000000E+00
  0.00000000E+00  0.00000000E+00  0.00000000E+00
  0.00000000E+00  0.00000000E+00  0.00000000E+00
  0.00000000E+00  0.00000000E+00  0.00000000E+00
  0.00000000E+00  0.00000000E+00  0.00000000E+00
  0.00000000E+00  0.00000000E+00  0.00000000E+00
  0.00000000E+00  0.00000000E+00  0.00000000E+00
  0.00000000E+00  0.00000000E+00  0.00000000E+00
  0.00000000E+00  0.00000000E+00  0.00000000E+00
  0.00000000E+00  0.00000000E+00  0.00000000E+00
  0.00000000E+00  0.00000000E+00  0.00000000E+00
  0.00000000E+00  0.00000000E+00  0.00000000E+00
  0.00000000E+00  0.00000000E+00  0.00000000E+00
  0.00000000E+00  0.00000000E+00  0.00000000E+00
  0.00000000E+00  0.00000000E+00  0.00000000E+00
  0.00000000E+00  0.00000000E+00  0.00000000E+00
  0.00000000E+00  0.00000000E+00  0.00000000E+00
  0.00000000E+00  0.00000000E+00  0.00000000E+00
  0.00000000E+00  0.00000000E+00  0.00000000E+00
  0.00000000E+00  0.00000000E+00  0.00000000E+00
  0.00000000E+00  0.00000000E+00  0.00000000E+00
  0.00000000E+00  0.00000000E+00  0.00000000E+00
  0.00000000E+00  0.00000000E+00  0.00000000E+00
  0.00000000E+00  0.00000000E+00  0.00000000E+00
  0.00000000E+00  0.00000000E+00  0.00000000E+00
  0.00000000E+00  0.00000000E+00  0.00000000E+00
  0.00000000E+00  0.00000000E+00  0.00000000E+00
  0.00000000E+00  0.00000000E+00  0.00000000E+00
  0.00000000E+00  0.00000000E+00  0.00000000E+00
  0.00000000E+00  0.00000000E+00  0.00000000E+00
  0.00000000E+00  0.00000000E+00  0.00000000E+00
  0.00000000E+00  0.00000000E+00  0.00000000E+00
  0.00000000E+00  0.00000000E+00  0.00000000E+00
  0.00000000E+00  0.00000000E+00  0.00000000E+00
  0.00000000E+00  0.00000000E+00  0.00000000E+00
