fcc_Fe_CON_333                          
   1.00000000000000     
    10.3348470473793466    0.0000000000000000    0.0000000000000000
     0.0000000000000000   10.3348470473793466    0.0000000000000000
     0.0000000000000000    0.0000000000000000   10.3348470473793466
   Fe   Te
   106     1
Direct
 -0.0004624313496775  0.0000000450321654 -0.0000002593937857
  0.0001429973075877  0.1662289278795193  0.1662288499983289
 -0.0013588301613431  0.3333037939785943 -0.0000000201903712
 -0.0029464137748291  0.4999999552238462  0.1683229848165259
 -0.0013588535175794  0.6666961484101664  0.0000000215290325
  0.0001429784966809  0.8337710954355144  0.1662289047208686
 -0.0013588279864104  0.0000000513936785  0.3333037145617597
 -0.0029464289278144  0.1683231026015821  0.4999998875798477
 -0.0003502570695913  0.3325022268171581  0.3325020841461441
 -0.0008001648100947  0.4999999447173417  0.4999998930402521
 -0.0003502509205423  0.6674976780708162  0.3325021509349864
 -0.0029463937935582  0.8316769100344635  0.4999998222586501
 -0.0013589971650347  0.0000000387220148  0.6666962798901908
  0.0001428300527580  0.1662286579861288  0.8337710377887325
 -0.0003502503743434  0.3325021751657055  0.6674975908078867
 -0.0029464377538581  0.4999999537084164  0.8316768723064268
 -0.0003502776407761  0.6674977557637739  0.6674976801565660
  0.0001428301516947  0.8337713681749942  0.8337710725458400
  0.1664712026674112  0.0000000582874289  0.1651383589255513
  0.1664712995482260  0.1651385274237276 -0.0000000550714996
  0.1664713276973804  0.8348615305609937  0.0000000806190451
  0.1582353649858428  0.3249609099453767  0.4999998027580761
  0.1582353331782252  0.4999999239111916  0.3249607784040119
  0.1582353577370416  0.6750390753311990  0.4999998819731525
  0.1664711912115703  0.0000000451242502  0.8348614737311539
  0.1582354609648200  0.4999999448681260  0.6750389967965205
  0.1658169895759618  0.3330369691618499  0.1660450179460375
  0.1658169888886405  0.6669629588255331  0.1660450560440553
  0.1658169588650998  0.1660451022706924  0.3330367956165063
  0.1658169573749114  0.8339549504325693  0.3330368744135603
  0.1658168683856023  0.1660450583615811  0.6669628999670354
  0.1658168027382121  0.3330368052390729  0.8339548961374856
  0.1658167888549727  0.6669631227169156  0.8339549428527550
  0.1658168861593625  0.8339550021071839  0.6669629339090882
  0.1661675495802875  0.4999999414235130  0.0000000376695362
  0.1661674239348048  0.0000000710986201  0.4999999788874682
  0.3332536851981755  0.0000000536557553  0.0000000927209035
  0.3328438296550996  0.1659602999132652  0.1659602666517381
  0.3328438457972976  0.8340397260315857  0.1659603589428823
  0.3336509259392827  0.3245693795396852  0.3245693035169762
  0.3336509245997086  0.6754305882215516  0.3245694116978544
  0.3328439793114245  0.1659603390725050  0.8340396619070225
  0.3336509719351454  0.3245695568949908  0.6754304530015508
  0.3336509762264913  0.6754304130822684  0.6754305198166705
  0.3328439782177988  0.8340396942310340  0.8340397127900048
  0.3334454541524541  0.3332916968862905  0.0000000976444822
  0.3360346078151115  0.4999999329351266  0.1686951914439436
  0.3334454653610104  0.6667082323082445  0.0000001443195295
  0.3334455319776745  0.0000000787747676  0.3332916363997927
  0.3360346146276422  0.1686952150019420  0.4999999604596459
  0.3360345901433188  0.8313048727482903  0.4999999123999451
  0.3334455486284084  0.0000000713539950  0.6667081840616804
  0.3360346572748005  0.4999999293270164  0.8313050054190239
  0.5007363818014248  0.0000000465525110  0.1659266217459494
  0.5007364613830189  0.1659264787855579  0.0000001114240060
  0.5004028006618720  0.3324289506547089  0.1652321201534863
  0.5003723681889152  0.4999999368000442  0.0000001498458791
  0.5004028028347786  0.6675709639526979  0.1652322077089942
  0.5007364578314499  0.8340735598698099  0.0000002023624946
  0.5003721176731563  0.0000000662325396  0.4999997710098992
  0.5004027522284481  0.1652321724018000  0.3324288550136200
  0.5103238182980948  0.3264871610804479  0.4999999297969333
  0.5103238810015742  0.4999999132355943  0.3264871257417054
  0.5103237872550946  0.6735127967217528  0.4999999419752946
  0.5004027686319560  0.8347678970668905  0.3324289224437955
  0.5007362945076274  0.0000000404513482  0.8340736535829152
  0.5004027002489151  0.1652321829974917  0.6675709123995549
  0.5004025635719748  0.3324290983212431  0.8347679274918268
  0.5004025939236532  0.6675708149574652  0.8347680189755319
  0.5004026683608160  0.8347678858791199  0.6675709828963666
  0.6679485450473215  0.3334103667704971  0.0000001132470108
  0.6672672170218291  0.4999999619995297  0.1675218034119757
  0.6679485667626536  0.6665895798748941  0.0000001438385608
  0.6679484935103808  0.0000000357464793  0.3334103035817994
  0.6672672063234467  0.1675217712149560  0.4999999084515525
  0.6672672150697426  0.8324782665723387  0.4999999059362086
  0.6679484056638497  0.0000000343403296  0.6665893285813779
  0.6672671573814338  0.4999999493310875  0.8324783260194663
  0.6669132779229763  0.1679827182308005  0.1679827741437730
  0.6669132706493950  0.8320172972100545  0.1679826939955975
  0.6673727223464515  0.3329785686986744  0.3329784910941451
  0.6673727326571943  0.6670213863481154  0.3329784966794396
  0.6669131463971830  0.1679829977506891  0.8320173444496198
  0.6673727068030161  0.3329785760944536  0.6670214203087528
  0.6673727303246297  0.6670213627688865  0.6670214545176087
  0.6669131515479848  0.8320170099797750  0.8320172618722030
  0.6669577527670394  0.0000000319551737  0.0000003596531927
  0.5103236898618116  0.4999999408951648  0.6735128199287315
  0.8333058322003714  0.5000000055383157  0.0000000818060474
  0.8333058315045470  0.0000000350498807  0.4999999747833413
  0.8335738719246440  0.3327869615001107  0.1654444181465009
  0.8335738571781420  0.6672129511559248  0.1654444725392551
  0.8335738667486923  0.1654444763242113  0.3327868647541148
  0.8335738578251767  0.8345555785378622  0.3327869897755843
  0.8335738176401322  0.1654444431650226  0.6672128676016340
  0.8335738933031215  0.3327870197949662  0.8345555729707708
  0.8335738689557450  0.6672129174681052  0.8345556361326082
  0.8335738334541746  0.8345555991853557  0.6672129470841117
  0.8328278554768093  0.0000000399616702  0.1663864591122295
  0.8328278136616953  0.1663865168370022 -0.0000000148375972
  0.8328278427134798  0.8336137605506062  0.0000000686156416
  0.8309566832882687  0.3344959163388411  0.4999998507720401
  0.8309567037682921  0.4999999409516227  0.3344957325705810
  0.8309566719958507  0.6655040288079084  0.4999998052375995
  0.8328230975059184  0.0000000346991817  0.8336139770740429
  0.8309566723393553  0.4999999424890480  0.6655040230173104
  0.3342867950819881  0.5000001037174242  0.5000003352938454
 
  0.00000000E+00  0.00000000E+00  0.00000000E+00
  0.00000000E+00  0.00000000E+00  0.00000000E+00
  0.00000000E+00  0.00000000E+00  0.00000000E+00
  0.00000000E+00  0.00000000E+00  0.00000000E+00
  0.00000000E+00  0.00000000E+00  0.00000000E+00
  0.00000000E+00  0.00000000E+00  0.00000000E+00
  0.00000000E+00  0.00000000E+00  0.00000000E+00
  0.00000000E+00  0.00000000E+00  0.00000000E+00
  0.00000000E+00  0.00000000E+00  0.00000000E+00
  0.00000000E+00  0.00000000E+00  0.00000000E+00
  0.00000000E+00  0.00000000E+00  0.00000000E+00
  0.00000000E+00  0.00000000E+00  0.00000000E+00
  0.00000000E+00  0.00000000E+00  0.00000000E+00
  0.00000000E+00  0.00000000E+00  0.00000000E+00
  0.00000000E+00  0.00000000E+00  0.00000000E+00
  0.00000000E+00  0.00000000E+00  0.00000000E+00
  0.00000000E+00  0.00000000E+00  0.00000000E+00
  0.00000000E+00  0.00000000E+00  0.00000000E+00
  0.00000000E+00  0.00000000E+00  0.00000000E+00
  0.00000000E+00  0.00000000E+00  0.00000000E+00
  0.00000000E+00  0.00000000E+00  0.00000000E+00
  0.00000000E+00  0.00000000E+00  0.00000000E+00
  0.00000000E+00  0.00000000E+00  0.00000000E+00
  0.00000000E+00  0.00000000E+00  0.00000000E+00
  0.00000000E+00  0.00000000E+00  0.00000000E+00
  0.00000000E+00  0.00000000E+00  0.00000000E+00
  0.00000000E+00  0.00000000E+00  0.00000000E+00
  0.00000000E+00  0.00000000E+00  0.00000000E+00
  0.00000000E+00  0.00000000E+00  0.00000000E+00
  0.00000000E+00  0.00000000E+00  0.00000000E+00
  0.00000000E+00  0.00000000E+00  0.00000000E+00
  0.00000000E+00  0.00000000E+00  0.00000000E+00
  0.00000000E+00  0.00000000E+00  0.00000000E+00
  0.00000000E+00  0.00000000E+00  0.00000000E+00
  0.00000000E+00  0.00000000E+00  0.00000000E+00
  0.00000000E+00  0.00000000E+00  0.00000000E+00
  0.00000000E+00  0.00000000E+00  0.00000000E+00
  0.00000000E+00  0.00000000E+00  0.00000000E+00
  0.00000000E+00  0.00000000E+00  0.00000000E+00
  0.00000000E+00  0.00000000E+00  0.00000000E+00
  0.00000000E+00  0.00000000E+00  0.00000000E+00
  0.00000000E+00  0.00000000E+00  0.00000000E+00
  0.00000000E+00  0.00000000E+00  0.00000000E+00
  0.00000000E+00  0.00000000E+00  0.00000000E+00
  0.00000000E+00  0.00000000E+00  0.00000000E+00
  0.00000000E+00  0.00000000E+00  0.00000000E+00
  0.00000000E+00  0.00000000E+00  0.00000000E+00
  0.00000000E+00  0.00000000E+00  0.00000000E+00
  0.00000000E+00  0.00000000E+00  0.00000000E+00
  0.00000000E+00  0.00000000E+00  0.00000000E+00
  0.00000000E+00  0.00000000E+00  0.00000000E+00
  0.00000000E+00  0.00000000E+00  0.00000000E+00
  0.00000000E+00  0.00000000E+00  0.00000000E+00
  0.00000000E+00  0.00000000E+00  0.00000000E+00
  0.00000000E+00  0.00000000E+00  0.00000000E+00
  0.00000000E+00  0.00000000E+00  0.00000000E+00
  0.00000000E+00  0.00000000E+00  0.00000000E+00
  0.00000000E+00  0.00000000E+00  0.00000000E+00
  0.00000000E+00  0.00000000E+00  0.00000000E+00
  0.00000000E+00  0.00000000E+00  0.00000000E+00
  0.00000000E+00  0.00000000E+00  0.00000000E+00
  0.00000000E+00  0.00000000E+00  0.00000000E+00
  0.00000000E+00  0.00000000E+00  0.00000000E+00
  0.00000000E+00  0.00000000E+00  0.00000000E+00
  0.00000000E+00  0.00000000E+00  0.00000000E+00
  0.00000000E+00  0.00000000E+00  0.00000000E+00
  0.00000000E+00  0.00000000E+00  0.00000000E+00
  0.00000000E+00  0.00000000E+00  0.00000000E+00
  0.00000000E+00  0.00000000E+00  0.00000000E+00
  0.00000000E+00  0.00000000E+00  0.00000000E+00
  0.00000000E+00  0.00000000E+00  0.00000000E+00
  0.00000000E+00  0.00000000E+00  0.00000000E+00
  0.00000000E+00  0.00000000E+00  0.00000000E+00
  0.00000000E+00  0.00000000E+00  0.00000000E+00
  0.00000000E+00  0.00000000E+00  0.00000000E+00
  0.00000000E+00  0.00000000E+00  0.00000000E+00
  0.00000000E+00  0.00000000E+00  0.00000000E+00
  0.00000000E+00  0.00000000E+00  0.00000000E+00
  0.00000000E+00  0.00000000E+00  0.00000000E+00
  0.00000000E+00  0.00000000E+00  0.00000000E+00
  0.00000000E+00  0.00000000E+00  0.00000000E+00
  0.00000000E+00  0.00000000E+00  0.00000000E+00
  0.00000000E+00  0.00000000E+00  0.00000000E+00
  0.00000000E+00  0.00000000E+00  0.00000000E+00
  0.00000000E+00  0.00000000E+00  0.00000000E+00
  0.00000000E+00  0.00000000E+00  0.00000000E+00
  0.00000000E+00  0.00000000E+00  0.00000000E+00
  0.00000000E+00  0.00000000E+00  0.00000000E+00
  0.00000000E+00  0.00000000E+00  0.00000000E+00
  0.00000000E+00  0.00000000E+00  0.00000000E+00
  0.00000000E+00  0.00000000E+00  0.00000000E+00
  0.00000000E+00  0.00000000E+00  0.00000000E+00
  0.00000000E+00  0.00000000E+00  0.00000000E+00
  0.00000000E+00  0.00000000E+00  0.00000000E+00
  0.00000000E+00  0.00000000E+00  0.00000000E+00
  0.00000000E+00  0.00000000E+00  0.00000000E+00
  0.00000000E+00  0.00000000E+00  0.00000000E+00
  0.00000000E+00  0.00000000E+00  0.00000000E+00
  0.00000000E+00  0.00000000E+00  0.00000000E+00
  0.00000000E+00  0.00000000E+00  0.00000000E+00
  0.00000000E+00  0.00000000E+00  0.00000000E+00
  0.00000000E+00  0.00000000E+00  0.00000000E+00
  0.00000000E+00  0.00000000E+00  0.00000000E+00
  0.00000000E+00  0.00000000E+00  0.00000000E+00
  0.00000000E+00  0.00000000E+00  0.00000000E+00
  0.00000000E+00  0.00000000E+00  0.00000000E+00
  0.00000000E+00  0.00000000E+00  0.00000000E+00
