fcc_Fe_CON_333                          
   1.00000000000000     
    10.3348470473793466    0.0000000000000000    0.0000000000000000
     0.0000000000000000   10.3348470473793466    0.0000000000000000
     0.0000000000000000    0.0000000000000000   10.3348470473793466
   Fe   Te
   106     1
Direct
 -0.0008202897222353  0.0000000575049432 -0.0001154601162660
 -0.0006547770845369  0.1665230128390503  0.1664725525435743
 -0.0012580985580780  0.3328349810205250 -0.0000918746371102
 -0.0010989390389815  0.5000000245342744  0.1662827151627911
 -0.0012580658090191  0.6671650667652815 -0.0000918447452168
 -0.0006547841335306  0.8334770528526259  0.1664725816016534
 -0.0017101927666487  0.0000000646335710  0.3329876857879632
 -0.0003962603618350  0.1660515536602024  0.5000262464192528
 -0.0006300618223690  0.3324610898123226  0.3326620026151906
 -0.0006553340642976  0.4999999864870174  0.5003194015198857
 -0.0006302101797749  0.6675389815455778  0.3326619200033195
 -0.0003963985974773  0.8339486380714839  0.5000262821649277
 -0.0015373556508415 -0.0000000278940300  0.6671426917155342
 -0.0001157886318365  0.1663498879989277  0.8338587768802855
 -0.0013193938082598  0.3328246516185517  0.6674159943753760
 -0.0013773701569067  0.5000000388229364  0.8332181144738224
 -0.0013194004150591  0.6671753820837797  0.6674161430309633
 -0.0001157277927440  0.8336502004582624  0.8338588055925799
  0.1665454147410437  0.0000000529349987  0.1653943376792936
  0.1665350940315039  0.1651888081572148  0.0002256744003659
  0.1665350866648864  0.8348112539048712  0.0002257162135201
  0.1578054570112071  0.3245159447830627  0.4997706035809048
  0.1561297747167481  0.5000000506005610  0.3265148945393325
  0.1578054089097305  0.6754841010096224  0.4997706622817411
  0.1661299870232800 -0.0000000713383733  0.8341405609483094
  0.1562689417698211  0.4999999968265521  0.6751767441401371
  0.1657723799188891  0.3331560064768616  0.1659180021927662
  0.1657723804973158  0.6668440432368734  0.1659180561234725
  0.1661610679191508  0.1655461917177412  0.3323980115035081
  0.1661610060346808  0.8344539427322816  0.3323980106023769
  0.1640217335425447  0.1677554493671316  0.6674395933647449
  0.1657954288901410  0.3325248524207640  0.8343467589867248
  0.1657955722501231  0.6674751684850639  0.8343466762423949
  0.1640220058331081  0.8322444489273692  0.6674395443557561
  0.1643641984486499  0.5000000279109627 -0.0019966200633412
  0.1661338549332458  0.0000003727142269  0.5004206149719063
  0.3333333094060904 -0.0000001528466433  0.0001948532458199
  0.3333333243637629  0.1660423901143791  0.1661774108239643
  0.3333333171736039  0.8339577484394903  0.1661774713571899
  0.3333333818664183  0.3245058513757454  0.3246905308038136
  0.3333333406411476  0.6754942423307104  0.3246905007402831
  0.3333333636779351  0.1662593868408180  0.8336730735004614
  0.3333334257347179  0.3248293421868100  0.6752103642162510
  0.3333333596839835  0.6751693114579922  0.6752101763203779
  0.3333333528633412  0.8337401765669664  0.8336725097118437
  0.3333333444224418  0.3338059052690177 -0.0001716359309258
  0.3333333962845559  0.5000000010349199  0.1669481708599568
  0.3333333397903979  0.6661940930607840 -0.0001717944028619
  0.3333333075917458 -0.0000000277240643  0.3327518535950205
  0.3333334135165497  0.1669431307319694  0.5002589825888200
  0.3333333288970224  0.8330569644383835  0.5002590319070278
  0.3333333284438413 -0.0000001107539763  0.6668860894966991
  0.3333333423439353  0.4999998748311730  0.8322111052782545
  0.5001211887519422  0.0000000278716623  0.1653943100149891
  0.5001315457192655  0.1651887907252500  0.0002257636020880
  0.5008942527933338  0.3331559918606498  0.1659180591425364
  0.5023025385519374  0.5000000280234950 -0.0019965465353292
  0.5008942310197513  0.6668440574604951  0.1659181167587830
  0.5001315427480491  0.8348112502763692  0.0002257977625875
  0.5005340708213634 -0.0000000390562018  0.5004206826338303
  0.5005055884271356  0.1655460819183538  0.3323980081588144
  0.5088609483748961  0.3245161773668649  0.4997707321946863
  0.5105369064260878  0.5000000251837905  0.3265149909909990
  0.5088611700043026  0.6754840128018469  0.4997707157798665
  0.5005055937680286  0.8344539874371034  0.3323980563244635
  0.5005366493929487 -0.0000000674594103  0.8341406386003289
  0.5026449663649349  0.1677554308897118  0.6674396851276395
  0.5008712358063697  0.3325248108146290  0.8343469394227271
  0.5008710488461927  0.6674751904359536  0.8343468075410476
  0.5026446354128831  0.8322444518877407  0.6674396601674634
  0.6679247854046177  0.3328349992709831 -0.0000917560321051
  0.6677656168923682  0.5000000161739684  0.1662827172077579
  0.6679247317755417  0.6671650601712249 -0.0000917257809944
  0.6683768586600409  0.0000000496310700  0.3329878182711778
  0.6670630739241560  0.1660513265372116  0.5000262543262095
  0.6670631192899259  0.8339487385234480  0.5000262867464009
  0.6682040194927893 -0.0000000471781998  0.6671428266264450
  0.6680442677508257  0.5000000252620165  0.8332182247803395
  0.6673214469468279  0.1665229758889526  0.1664726084198581
  0.6673214267898575  0.8334770643606733  0.1664726181349505
  0.6672968357825451  0.3324610160793610  0.3326619356269314
  0.6672968873262457  0.6675390391508895  0.3326619784817748
  0.6667824778976454  0.1663499108357898  0.8338588137707876
  0.6679861414052245  0.3328245868493610  0.6674161477879338
  0.6679861091878664  0.6671753995043423  0.6674162062468221
  0.6667823971485948  0.8336501556588259  0.8338588516634403
  0.6674869239939870  0.0000000422267105 -0.0001154117731986
  0.6673219097571303  0.5000000234012548  0.5003194200139800
  0.8333333547178522  0.5000000186005651 -0.0015593866749492
  0.8333334310389138  0.0000000846535903  0.5003678608028235
  0.8333334281717297  0.3333773642514882  0.1653208796652493
  0.8333333624999847  0.6666227046514287  0.1653208553324196
  0.8333333398198897  0.1674404309079193  0.3349775679822638
  0.8333333040729178  0.8325596495020172  0.3349775156241174
  0.8333333749341845  0.1671835752493149  0.6672441273510291
  0.8333333850892044  0.3335463538458289  0.8334367374367773
  0.8333333532312226  0.6664536683130877  0.8334367178857425
  0.8333333471356609  0.8328165472280618  0.6672441133014473
  0.8333333306464057  0.0000000549449763  0.1660456234652432
  0.8333333510664259  0.1680291254635747 -0.0016887448141089
  0.8333333399521003  0.8319709254061333 -0.0016888550353593
  0.8333333713939747  0.3343415127244297  0.5010502611016155
  0.8333333664717211  0.5000000274663021  0.3349274533510085
  0.8333333874903466  0.6656585506988317  0.5010501850507572
  0.8333333198526645  0.0000000457134987  0.8331386222388775
  0.5103975228922250  0.4999999542944948  0.6751765225256963
  0.3333338276238380  0.4999994042607052  0.5003151776388763
 
  0.00000000E+00  0.00000000E+00  0.00000000E+00
  0.00000000E+00  0.00000000E+00  0.00000000E+00
  0.00000000E+00  0.00000000E+00  0.00000000E+00
  0.00000000E+00  0.00000000E+00  0.00000000E+00
  0.00000000E+00  0.00000000E+00  0.00000000E+00
  0.00000000E+00  0.00000000E+00  0.00000000E+00
  0.00000000E+00  0.00000000E+00  0.00000000E+00
  0.00000000E+00  0.00000000E+00  0.00000000E+00
  0.00000000E+00  0.00000000E+00  0.00000000E+00
  0.00000000E+00  0.00000000E+00  0.00000000E+00
  0.00000000E+00  0.00000000E+00  0.00000000E+00
  0.00000000E+00  0.00000000E+00  0.00000000E+00
  0.00000000E+00  0.00000000E+00  0.00000000E+00
  0.00000000E+00  0.00000000E+00  0.00000000E+00
  0.00000000E+00  0.00000000E+00  0.00000000E+00
  0.00000000E+00  0.00000000E+00  0.00000000E+00
  0.00000000E+00  0.00000000E+00  0.00000000E+00
  0.00000000E+00  0.00000000E+00  0.00000000E+00
  0.00000000E+00  0.00000000E+00  0.00000000E+00
  0.00000000E+00  0.00000000E+00  0.00000000E+00
  0.00000000E+00  0.00000000E+00  0.00000000E+00
  0.00000000E+00  0.00000000E+00  0.00000000E+00
  0.00000000E+00  0.00000000E+00  0.00000000E+00
  0.00000000E+00  0.00000000E+00  0.00000000E+00
  0.00000000E+00  0.00000000E+00  0.00000000E+00
  0.00000000E+00  0.00000000E+00  0.00000000E+00
  0.00000000E+00  0.00000000E+00  0.00000000E+00
  0.00000000E+00  0.00000000E+00  0.00000000E+00
  0.00000000E+00  0.00000000E+00  0.00000000E+00
  0.00000000E+00  0.00000000E+00  0.00000000E+00
  0.00000000E+00  0.00000000E+00  0.00000000E+00
  0.00000000E+00  0.00000000E+00  0.00000000E+00
  0.00000000E+00  0.00000000E+00  0.00000000E+00
  0.00000000E+00  0.00000000E+00  0.00000000E+00
  0.00000000E+00  0.00000000E+00  0.00000000E+00
  0.00000000E+00  0.00000000E+00  0.00000000E+00
  0.00000000E+00  0.00000000E+00  0.00000000E+00
  0.00000000E+00  0.00000000E+00  0.00000000E+00
  0.00000000E+00  0.00000000E+00  0.00000000E+00
  0.00000000E+00  0.00000000E+00  0.00000000E+00
  0.00000000E+00  0.00000000E+00  0.00000000E+00
  0.00000000E+00  0.00000000E+00  0.00000000E+00
  0.00000000E+00  0.00000000E+00  0.00000000E+00
  0.00000000E+00  0.00000000E+00  0.00000000E+00
  0.00000000E+00  0.00000000E+00  0.00000000E+00
  0.00000000E+00  0.00000000E+00  0.00000000E+00
  0.00000000E+00  0.00000000E+00  0.00000000E+00
  0.00000000E+00  0.00000000E+00  0.00000000E+00
  0.00000000E+00  0.00000000E+00  0.00000000E+00
  0.00000000E+00  0.00000000E+00  0.00000000E+00
  0.00000000E+00  0.00000000E+00  0.00000000E+00
  0.00000000E+00  0.00000000E+00  0.00000000E+00
  0.00000000E+00  0.00000000E+00  0.00000000E+00
  0.00000000E+00  0.00000000E+00  0.00000000E+00
  0.00000000E+00  0.00000000E+00  0.00000000E+00
  0.00000000E+00  0.00000000E+00  0.00000000E+00
  0.00000000E+00  0.00000000E+00  0.00000000E+00
  0.00000000E+00  0.00000000E+00  0.00000000E+00
  0.00000000E+00  0.00000000E+00  0.00000000E+00
  0.00000000E+00  0.00000000E+00  0.00000000E+00
  0.00000000E+00  0.00000000E+00  0.00000000E+00
  0.00000000E+00  0.00000000E+00  0.00000000E+00
  0.00000000E+00  0.00000000E+00  0.00000000E+00
  0.00000000E+00  0.00000000E+00  0.00000000E+00
  0.00000000E+00  0.00000000E+00  0.00000000E+00
  0.00000000E+00  0.00000000E+00  0.00000000E+00
  0.00000000E+00  0.00000000E+00  0.00000000E+00
  0.00000000E+00  0.00000000E+00  0.00000000E+00
  0.00000000E+00  0.00000000E+00  0.00000000E+00
  0.00000000E+00  0.00000000E+00  0.00000000E+00
  0.00000000E+00  0.00000000E+00  0.00000000E+00
  0.00000000E+00  0.00000000E+00  0.00000000E+00
  0.00000000E+00  0.00000000E+00  0.00000000E+00
  0.00000000E+00  0.00000000E+00  0.00000000E+00
  0.00000000E+00  0.00000000E+00  0.00000000E+00
  0.00000000E+00  0.00000000E+00  0.00000000E+00
  0.00000000E+00  0.00000000E+00  0.00000000E+00
  0.00000000E+00  0.00000000E+00  0.00000000E+00
  0.00000000E+00  0.00000000E+00  0.00000000E+00
  0.00000000E+00  0.00000000E+00  0.00000000E+00
  0.00000000E+00  0.00000000E+00  0.00000000E+00
  0.00000000E+00  0.00000000E+00  0.00000000E+00
  0.00000000E+00  0.00000000E+00  0.00000000E+00
  0.00000000E+00  0.00000000E+00  0.00000000E+00
  0.00000000E+00  0.00000000E+00  0.00000000E+00
  0.00000000E+00  0.00000000E+00  0.00000000E+00
  0.00000000E+00  0.00000000E+00  0.00000000E+00
  0.00000000E+00  0.00000000E+00  0.00000000E+00
  0.00000000E+00  0.00000000E+00  0.00000000E+00
  0.00000000E+00  0.00000000E+00  0.00000000E+00
  0.00000000E+00  0.00000000E+00  0.00000000E+00
  0.00000000E+00  0.00000000E+00  0.00000000E+00
  0.00000000E+00  0.00000000E+00  0.00000000E+00
  0.00000000E+00  0.00000000E+00  0.00000000E+00
  0.00000000E+00  0.00000000E+00  0.00000000E+00
  0.00000000E+00  0.00000000E+00  0.00000000E+00
  0.00000000E+00  0.00000000E+00  0.00000000E+00
  0.00000000E+00  0.00000000E+00  0.00000000E+00
  0.00000000E+00  0.00000000E+00  0.00000000E+00
  0.00000000E+00  0.00000000E+00  0.00000000E+00
  0.00000000E+00  0.00000000E+00  0.00000000E+00
  0.00000000E+00  0.00000000E+00  0.00000000E+00
  0.00000000E+00  0.00000000E+00  0.00000000E+00
  0.00000000E+00  0.00000000E+00  0.00000000E+00
  0.00000000E+00  0.00000000E+00  0.00000000E+00
  0.00000000E+00  0.00000000E+00  0.00000000E+00
  0.00000000E+00  0.00000000E+00  0.00000000E+00
