fcc_Fe_CON_333                          
   1.00000000000000     
    10.3348470473793466    0.0000000000000000    0.0000000000000000
     0.0000000000000000   10.3348470473793466   -0.0000000000000000
     0.0000000000000000    0.0000000000000000   10.3348470473793466
   Fe
   108
Direct
 -0.0000000000000000 -0.0000000000000000 -0.0000000000000000
 -0.0000000000000000  0.1666689333823085  0.1666689333823085
  0.1666689333823085 -0.0000000000000000  0.1666689333823085
  0.1666689333823085  0.1666689333823085 -0.0000000000000000
  0.3333310622019478 -0.0000000000000000 -0.0000000000000000
  0.3333310661968722  0.1666689338031278  0.1666689338031278
  0.5000000000000000 -0.0000000000000000  0.1666689377980522
  0.5000000000000000  0.1666689377980522 -0.0000000000000000
  0.6666689667980510 -0.0000000000000000 -0.0000000000000000
  0.6666689628031267  0.1666689338031278  0.1666689338031278
  0.8333310376176928 -0.0000000000000000  0.1666689333823085
  0.8333310376176928  0.1666689333823085 -0.0000000000000000
 -0.0000000000000000  0.3333310622019478 -0.0000000000000000
 -0.0000000000000000  0.5000000000000000  0.1666689377980522
  0.1666689338031278  0.3333310661968722  0.1666689338031278
  0.1666689377980522  0.5000000000000000 -0.0000000000000000
  0.3333310666176915  0.3333310666176915 -0.0000000000000000
  0.3333310666176915  0.5000000000000000  0.1666689333823085
  0.5000000000000000  0.3333310666176915  0.1666689333823085
  0.5000000000000000  0.5000000000000000 -0.0000000000000000
  0.6666689623823072  0.3333310666176915 -0.0000000000000000
  0.6666689623823072  0.5000000000000000  0.1666689333823085
  0.8333310371968733  0.3333310661968722  0.1666689338031278
  0.8333310332019490  0.5000000000000000 -0.0000000000000000
 -0.0000000000000000  0.6666689667980510 -0.0000000000000000
 -0.0000000000000000  0.8333310376176928  0.1666689333823085
  0.1666689338031278  0.6666689628031267  0.1666689338031278
  0.1666689333823085  0.8333310376176928 -0.0000000000000000
  0.3333310666176915  0.6666689623823072 -0.0000000000000000
  0.3333310661968722  0.8333310371968733  0.1666689338031278
  0.5000000000000000  0.6666689623823072  0.1666689333823085
  0.5000000000000000  0.8333310332019490 -0.0000000000000000
  0.6666689623823072  0.6666689623823072 -0.0000000000000000
  0.6666689628031267  0.8333310371968733  0.1666689338031278
  0.8333310371968733  0.6666689628031267  0.1666689338031278
  0.8333310376176928  0.8333310376176928 -0.0000000000000000
 -0.0000000000000000 -0.0000000000000000  0.3333310622019478
 -0.0000000000000000  0.1666689377980522  0.5000000000000000
  0.1666689377980522 -0.0000000000000000  0.5000000000000000
  0.1666689338031278  0.1666689338031278  0.3333310661968722
  0.3333310666176915 -0.0000000000000000  0.3333310666176915
  0.3333310666176915  0.1666689333823085  0.5000000000000000
  0.5000000000000000 -0.0000000000000000  0.5000000000000000
  0.5000000000000000  0.1666689333823085  0.3333310666176915
  0.6666689623823072 -0.0000000000000000  0.3333310666176915
  0.6666689623823072  0.1666689333823085  0.5000000000000000
  0.8333310332019490 -0.0000000000000000  0.5000000000000000
  0.8333310371968733  0.1666689338031278  0.3333310661968722
 -0.0000000000000000  0.3333310666176915  0.3333310666176915
 -0.0000000000000000  0.5000000000000000  0.5000000000000000
  0.1666689333823085  0.3333310666176915  0.5000000000000000
  0.1666689333823085  0.5000000000000000  0.3333310666176915
  0.3333310661968722  0.3333310661968722  0.3333310661968722
  0.3333310622019478  0.5000000000000000  0.5000000000000000
  0.5000000000000000  0.3333310622019478  0.5000000000000000
  0.5000000000000000  0.5000000000000000  0.3333310622019478
  0.6666689628031267  0.3333310661968722  0.3333310661968722
  0.6666689667980510  0.5000000000000000  0.5000000000000000
  0.8333310376176928  0.3333310666176915  0.5000000000000000
  0.8333310376176928  0.5000000000000000  0.3333310666176915
 -0.0000000000000000  0.6666689623823072  0.3333310666176915
 -0.0000000000000000  0.8333310332019490  0.5000000000000000
  0.1666689333823085  0.6666689623823072  0.5000000000000000
  0.1666689338031278  0.8333310371968733  0.3333310661968722
  0.3333310661968722  0.6666689628031267  0.3333310661968722
  0.3333310666176915  0.8333310376176928  0.5000000000000000
  0.5000000000000000  0.6666689667980510  0.5000000000000000
  0.5000000000000000  0.8333310376176928  0.3333310666176915
  0.6666689628031267  0.6666689628031267  0.3333310661968722
  0.6666689623823072  0.8333310376176928  0.5000000000000000
  0.8333310376176928  0.6666689623823072  0.5000000000000000
  0.8333310371968733  0.8333310371968733  0.3333310661968722
 -0.0000000000000000 -0.0000000000000000  0.6666689667980510
 -0.0000000000000000  0.1666689333823085  0.8333310376176928
  0.1666689333823085 -0.0000000000000000  0.8333310376176928
  0.1666689338031278  0.1666689338031278  0.6666689628031267
  0.3333310666176915 -0.0000000000000000  0.6666689623823072
  0.3333310661968722  0.1666689338031278  0.8333310371968733
  0.5000000000000000 -0.0000000000000000  0.8333310332019490
  0.5000000000000000  0.1666689333823085  0.6666689623823072
  0.6666689623823072 -0.0000000000000000  0.6666689623823072
  0.6666689628031267  0.1666689338031278  0.8333310371968733
  0.8333310376176928 -0.0000000000000000  0.8333310376176928
  0.8333310371968733  0.1666689338031278  0.6666689628031267
 -0.0000000000000000  0.3333310666176915  0.6666689623823072
 -0.0000000000000000  0.5000000000000000  0.8333310332019490
  0.1666689338031278  0.3333310661968722  0.8333310371968733
  0.1666689333823085  0.5000000000000000  0.6666689623823072
  0.3333310661968722  0.3333310661968722  0.6666689628031267
  0.3333310666176915  0.5000000000000000  0.8333310376176928
  0.5000000000000000  0.3333310666176915  0.8333310376176928
  0.5000000000000000  0.5000000000000000  0.6666689667980510
  0.6666689628031267  0.3333310661968722  0.6666689628031267
  0.6666689623823072  0.5000000000000000  0.8333310376176928
  0.8333310371968733  0.3333310661968722  0.8333310371968733
  0.8333310376176928  0.5000000000000000  0.6666689623823072
 -0.0000000000000000  0.6666689623823072  0.6666689623823072
 -0.0000000000000000  0.8333310376176928  0.8333310376176928
  0.1666689338031278  0.6666689628031267  0.8333310371968733
  0.1666689338031278  0.8333310371968733  0.6666689628031267
  0.3333310661968722  0.6666689628031267  0.6666689628031267
  0.3333310661968722  0.8333310371968733  0.8333310371968733
  0.5000000000000000  0.6666689623823072  0.8333310376176928
  0.5000000000000000  0.8333310376176928  0.6666689623823072
  0.6666689628031267  0.6666689628031267  0.6666689628031267
  0.6666689628031267  0.8333310371968733  0.8333310371968733
  0.8333310371968733  0.6666689628031267  0.8333310371968733
  0.8333310371968733  0.8333310371968733  0.6666689628031267
 
  0.00000000E+00  0.00000000E+00  0.00000000E+00
  0.00000000E+00  0.00000000E+00  0.00000000E+00
  0.00000000E+00  0.00000000E+00  0.00000000E+00
  0.00000000E+00  0.00000000E+00  0.00000000E+00
  0.00000000E+00  0.00000000E+00  0.00000000E+00
  0.00000000E+00  0.00000000E+00  0.00000000E+00
  0.00000000E+00  0.00000000E+00  0.00000000E+00
  0.00000000E+00  0.00000000E+00  0.00000000E+00
  0.00000000E+00  0.00000000E+00  0.00000000E+00
  0.00000000E+00  0.00000000E+00  0.00000000E+00
  0.00000000E+00  0.00000000E+00  0.00000000E+00
  0.00000000E+00  0.00000000E+00  0.00000000E+00
  0.00000000E+00  0.00000000E+00  0.00000000E+00
  0.00000000E+00  0.00000000E+00  0.00000000E+00
  0.00000000E+00  0.00000000E+00  0.00000000E+00
  0.00000000E+00  0.00000000E+00  0.00000000E+00
  0.00000000E+00  0.00000000E+00  0.00000000E+00
  0.00000000E+00  0.00000000E+00  0.00000000E+00
  0.00000000E+00  0.00000000E+00  0.00000000E+00
  0.00000000E+00  0.00000000E+00  0.00000000E+00
  0.00000000E+00  0.00000000E+00  0.00000000E+00
  0.00000000E+00  0.00000000E+00  0.00000000E+00
  0.00000000E+00  0.00000000E+00  0.00000000E+00
  0.00000000E+00  0.00000000E+00  0.00000000E+00
  0.00000000E+00  0.00000000E+00  0.00000000E+00
  0.00000000E+00  0.00000000E+00  0.00000000E+00
  0.00000000E+00  0.00000000E+00  0.00000000E+00
  0.00000000E+00  0.00000000E+00  0.00000000E+00
  0.00000000E+00  0.00000000E+00  0.00000000E+00
  0.00000000E+00  0.00000000E+00  0.00000000E+00
  0.00000000E+00  0.00000000E+00  0.00000000E+00
  0.00000000E+00  0.00000000E+00  0.00000000E+00
  0.00000000E+00  0.00000000E+00  0.00000000E+00
  0.00000000E+00  0.00000000E+00  0.00000000E+00
  0.00000000E+00  0.00000000E+00  0.00000000E+00
  0.00000000E+00  0.00000000E+00  0.00000000E+00
  0.00000000E+00  0.00000000E+00  0.00000000E+00
  0.00000000E+00  0.00000000E+00  0.00000000E+00
  0.00000000E+00  0.00000000E+00  0.00000000E+00
  0.00000000E+00  0.00000000E+00  0.00000000E+00
  0.00000000E+00  0.00000000E+00  0.00000000E+00
  0.00000000E+00  0.00000000E+00  0.00000000E+00
  0.00000000E+00  0.00000000E+00  0.00000000E+00
  0.00000000E+00  0.00000000E+00  0.00000000E+00
  0.00000000E+00  0.00000000E+00  0.00000000E+00
  0.00000000E+00  0.00000000E+00  0.00000000E+00
  0.00000000E+00  0.00000000E+00  0.00000000E+00
  0.00000000E+00  0.00000000E+00  0.00000000E+00
  0.00000000E+00  0.00000000E+00  0.00000000E+00
  0.00000000E+00  0.00000000E+00  0.00000000E+00
  0.00000000E+00  0.00000000E+00  0.00000000E+00
  0.00000000E+00  0.00000000E+00  0.00000000E+00
  0.00000000E+00  0.00000000E+00  0.00000000E+00
  0.00000000E+00  0.00000000E+00  0.00000000E+00
  0.00000000E+00  0.00000000E+00  0.00000000E+00
  0.00000000E+00  0.00000000E+00  0.00000000E+00
  0.00000000E+00  0.00000000E+00  0.00000000E+00
  0.00000000E+00  0.00000000E+00  0.00000000E+00
  0.00000000E+00  0.00000000E+00  0.00000000E+00
  0.00000000E+00  0.00000000E+00  0.00000000E+00
  0.00000000E+00  0.00000000E+00  0.00000000E+00
  0.00000000E+00  0.00000000E+00  0.00000000E+00
  0.00000000E+00  0.00000000E+00  0.00000000E+00
  0.00000000E+00  0.00000000E+00  0.00000000E+00
  0.00000000E+00  0.00000000E+00  0.00000000E+00
  0.00000000E+00  0.00000000E+00  0.00000000E+00
  0.00000000E+00  0.00000000E+00  0.00000000E+00
  0.00000000E+00  0.00000000E+00  0.00000000E+00
  0.00000000E+00  0.00000000E+00  0.00000000E+00
  0.00000000E+00  0.00000000E+00  0.00000000E+00
  0.00000000E+00  0.00000000E+00  0.00000000E+00
  0.00000000E+00  0.00000000E+00  0.00000000E+00
  0.00000000E+00  0.00000000E+00  0.00000000E+00
  0.00000000E+00  0.00000000E+00  0.00000000E+00
  0.00000000E+00  0.00000000E+00  0.00000000E+00
  0.00000000E+00  0.00000000E+00  0.00000000E+00
  0.00000000E+00  0.00000000E+00  0.00000000E+00
  0.00000000E+00  0.00000000E+00  0.00000000E+00
  0.00000000E+00  0.00000000E+00  0.00000000E+00
  0.00000000E+00  0.00000000E+00  0.00000000E+00
  0.00000000E+00  0.00000000E+00  0.00000000E+00
  0.00000000E+00  0.00000000E+00  0.00000000E+00
  0.00000000E+00  0.00000000E+00  0.00000000E+00
  0.00000000E+00  0.00000000E+00  0.00000000E+00
  0.00000000E+00  0.00000000E+00  0.00000000E+00
  0.00000000E+00  0.00000000E+00  0.00000000E+00
  0.00000000E+00  0.00000000E+00  0.00000000E+00
  0.00000000E+00  0.00000000E+00  0.00000000E+00
  0.00000000E+00  0.00000000E+00  0.00000000E+00
  0.00000000E+00  0.00000000E+00  0.00000000E+00
  0.00000000E+00  0.00000000E+00  0.00000000E+00
  0.00000000E+00  0.00000000E+00  0.00000000E+00
  0.00000000E+00  0.00000000E+00  0.00000000E+00
  0.00000000E+00  0.00000000E+00  0.00000000E+00
  0.00000000E+00  0.00000000E+00  0.00000000E+00
  0.00000000E+00  0.00000000E+00  0.00000000E+00
  0.00000000E+00  0.00000000E+00  0.00000000E+00
  0.00000000E+00  0.00000000E+00  0.00000000E+00
  0.00000000E+00  0.00000000E+00  0.00000000E+00
  0.00000000E+00  0.00000000E+00  0.00000000E+00
  0.00000000E+00  0.00000000E+00  0.00000000E+00
  0.00000000E+00  0.00000000E+00  0.00000000E+00
  0.00000000E+00  0.00000000E+00  0.00000000E+00
  0.00000000E+00  0.00000000E+00  0.00000000E+00
  0.00000000E+00  0.00000000E+00  0.00000000E+00
  0.00000000E+00  0.00000000E+00  0.00000000E+00
  0.00000000E+00  0.00000000E+00  0.00000000E+00
  0.00000000E+00  0.00000000E+00  0.00000000E+00
