Fe
   1.00000000000000     
  10.3348470473793004   0.0000000000000000   0.0000000000000000
   0.0000000000000000  10.3348470473793004   0.0000000000000000
   0.0000000000000000   0.0000000000000000  10.3348470473793004
Fe
107  
Direct
  0.9999167350146581  0.0000004861490766  0.0000830567198520  
  0.9998731845606560  0.1664583332200990  0.1665423200303020  
  0.0000963696226037  0.3337669978004670  0.9999033907576520  
  0.0009971100581438  0.4999995137225430  0.1676653004125870  
  0.0000963138167904  0.6662325404028810  0.9999033638020980  
  0.9998731498893531  0.8335421819214870  0.1665423805421040  
  0.0000962878997797  0.0000004691890680  0.3334683838084590  
  0.0009970825136705  0.1677611102117570  0.5002162865116380  
  0.9999438577329440  0.3334793803574950  0.3333605332568010  
  0.0009182773148311  0.4999994640192820  0.5002283202017350  
  0.9999438215426010  0.6665201984852800  0.3333605557942860  
  0.0009971562354920  0.8322393361215960  0.5002162258480570  
  0.0000963319994440  0.0000004616618270  0.6664483584595330  
  0.9998732235694660  0.1666381379129480  0.8332414202571170  
  0.9999439245588920  0.3334909618491440  0.6667359801892300  
  0.0009972242346237  0.4999994863889650  0.8321063501787830  
  0.9999439237083440  0.6665086142240360  0.6667359338449970  
  0.9998732000229890  0.8333624008273260  0.8332413815604340  
  0.1668014606337350  0.0000005017216651  0.1667653279378380  
  0.1667581932176030  0.1666381130940950  0.0001265188708359  
  0.1667581849859090  0.8333624860283850  0.0001264909455045  
  0.1670997321328040  0.3337482689321970  0.4999284179792340  
  0.1681526934689330  0.5000000384341730  0.3348184854601900  
  0.1670996827734970  0.6662513584993091  0.4999283706157130  
  0.1669812998869280  0.0000004554823292  0.8330183572384799  
  0.1680741962997350  0.4999994535879820  0.6661784959689639  
  0.1666937983702400  0.3334789612865380  0.1666127725194140  
  0.1666937809137610  0.6665205691785300  0.1666128087406880  
  0.1664708847030740  0.1664856547901220  0.3331369613712670  
  0.1664708834777140  0.8335148788677390  0.3331370343656270  
  0.1675932192487440  0.1676078742952920  0.6667359274389570  
  0.1665413089566170  0.3331908671818130  0.8334582475000329  
  0.1665412445682010  0.6668087254970489  0.8334582240239640  
  0.1675932086290710  0.8323926878925790  0.6667358299563449  
  0.1678938919883420  0.4999994758551410  0.9990024642789090  
  0.1669933891129890  0.0000004147980448  0.5002163078015940  
  0.3335517626455910  0.0000004933085549  0.9999033547002090  
  0.3335520661844240  0.1677604019164600  0.1676646794545320  
  0.3335520536123510  0.8322401608020020  0.1676646311057080  
  0.3332622309009420  0.3337482699029270  0.3337651614571160  
  0.3332621254588450  0.6662512861082490  0.3337650712149700  
  0.3332640339848890  0.1676079282210240  0.8324063739912620  
  0.3338197152666920  0.3343050558565110  0.6661804713997980  
  0.3338192008954830  0.6656945313429360  0.6661801282671930  
  0.3332639739172550  0.8323927168590119  0.8324063130022810  
  0.3332638884021860  0.3334907961158180  0.0000558440157263  
  0.3335635256213580  0.4999994604198510  0.1675873171405090  
  0.3332638757823640  0.6665087548281720  0.0000558766786796  
  0.3335518161372160  0.0000004937008029  0.3336599880525450  
  0.3332639122060930  0.1675306926976030  0.4999289509262400  
  0.3332637388315830  0.8324699063362000  0.4999289073169780  
  0.3335633976504230  0.0000004444313007  0.6664365491337920  
  0.3338214361910230  0.4999994249256400  0.8319250010146040  
  0.4997840638945090  0.0000005026263494  0.1667652409561740  
  0.4997839825058750  0.1677617155333660  0.9990024524640970  
  0.5000713705061910  0.3334908709639000  0.1666127578484480  
  0.4997719851445050  0.4999994193446470  0.9990815799583790  
  0.5000713956648750  0.6665086757285370  0.1666127156954360  
  0.4997840412628920  0.8322388762500670  0.9990023665251900  
  0.4997719462149420  0.0000004012888439  0.5002283713416420  
  0.5000713258462570  0.1676091693767390  0.3342613723230490  
  0.4995133938181060  0.3343055425782210  0.5004869657039350  
  0.4995125719054200  0.4999997433119180  0.3347409837634390  
  0.4995136102406620  0.6656932480237360  0.5004868495186440  
  0.5000713372413730  0.8323914109863610  0.3342612906243900  
  0.4997840221363390  0.0000004440574628  0.8330062982546880  
  0.5000713396111111  0.1675304836141860  0.6667360635076069  
  0.5000718435229460  0.3337482661035050  0.8328996722971810  
  0.5000718578669560  0.6662513268321320  0.8328998097533930  
  0.5000713240470200  0.8324702608846341  0.6667360787133990  
  0.6666398569206680  0.3334792819045870  0.0000558833722835  
  0.6654393996063630  0.4999994694451790  0.1676654825059670  
  0.6666399254230060  0.6665203650801320  0.0000559350657667  
  0.6663520181475280  0.0000003958264685  0.3336483253402350  
  0.6657391660153140  0.1676084311789410  0.4999289097072150  
  0.6657390221790680  0.8323913120611830  0.4999288027331090  
  0.6663404055660390  0.0000003770833530  0.6664481527161140  
  0.6651812091274250  0.4999993696074160  0.8318462348487120  
  0.6665754016466540  0.1666380217966150  0.1665422991049610  
  0.6665754238032240  0.8333624622709980  0.1665422268366110  
  0.6667921406975170  0.3331915398149330  0.3332083313209470  
  0.6667922731338290  0.6668080534371440  0.3332081403456610  
  0.6668633813358870  0.1664855363373760  0.8335286490871430  
  0.6662352524293450  0.3337482072832290  0.6667375213848030  
  0.6662354490186430  0.6662513711870870  0.6667376208886890  
  0.6668634378091270  0.8335150627675390  0.8335287830627750  
  0.6665316976811230  0.0000004113168046  0.9999033793419020  
  0.6652606337935650  0.4999988107194260  0.5004873049422121  
  0.8323341836288169  0.4999995261975060  0.9990024751963060  
  0.8332347427045260  0.0000004002432590  0.5002162517135180  
  0.8332349252590490  0.3337669746538130  0.1667652485704420  
  0.8332349153161690  0.6662325932773360  0.1667652338833960  
  0.8334578734030060  0.1666380441203330  0.3334249593111810  
  0.8334578416045990  0.8333624334724380  0.3334250091028890  
  0.8323355413734110  0.1677602520461010  0.6664478421701719  
  0.8333874221709791  0.3334788534433170  0.8333057771031560  
  0.8333874857855010  0.6665207458689369  0.8333058183310770  
  0.8323355298783210  0.8322402614040100  0.6664477463144181  
  0.8334145428706420  0.0000004725496012  0.1665856668517160  
  0.8334578534948990  0.1664583839539800  0.0001265495342793  
  0.8334578110510900  0.8335421418785390  0.0001265624965967  
  0.8333874650768250  0.3334906880205110  0.4999288723603430  
  0.8323345038850580  0.4999995159728460  0.3345607879180080  
  0.8333876264396169  0.6665089141609289  0.4999287986964450  
  0.8332347317583380  0.0000004543998884  0.8331980403106199  
  0.8324132065217070  0.4999994323097000  0.6664364460198160  
  0.4166677796611470  0.4999993977425630  0.5833322246999160  
