pymatgen generated KPOINTS with grid density = 1074 / atom
0
Monkhorst
1 1 1

