fcc_Fe_CON_333                          
   1.00000000000000     
    10.3348470473793466    0.0000000000000000    0.0000000000000000
     0.0000000000000000   10.3348470473793466    0.0000000000000000
     0.0000000000000000    0.0000000000000000   10.3348470473793466
   Fe   Te
   106     1
Direct
 -0.0008301768286963 -0.0004387416890083 -0.0000000732223202
 -0.0000665011871316  0.1666002154718373  0.1662106575682698
 -0.0011990320673720  0.3328594869566936 -0.0000000608519142
 -0.0001339517786954  0.4998582329218348  0.1659421720366607
 -0.0014418004786737  0.6673343255104737  0.0000000095710584
 -0.0024211802036040  0.8335104465666838  0.1686264783068456
 -0.0012249821669149  0.0001066205606271  0.3330514037093300
 -0.0023385996152832  0.1643280914189085  0.4999997438132320
 -0.0010642856254182  0.3325317799878580  0.3330890262413803
 -0.0025859064077345  0.5019984908430218  0.5000000064435925
 -0.0008285168826114  0.6670853998801339  0.3326931487001337
 -0.0022526000065904  0.8335436683786588  0.4999998786828919
 -0.0012251251835519  0.0001066604467435  0.6669482558286178
 -0.0000665634553092  0.1666001901757831  0.8337891956006245
 -0.0010643531678199  0.3325317192496922  0.6669106428362528
 -0.0001340663203273  0.4998582167029540  0.8340578124339086
 -0.0008285415413576  0.6670854209599841  0.6673067500915755
 -0.0024212796742075  0.8335104600131067  0.8313733477059361
  0.1661311304035273 -0.0004968191024307  0.1658449856976514
  0.1661929430668726  0.1654676022448435 -0.0000000366044476
  0.1659996358805340  0.8342971570596767  0.0000000698855644
  0.1584515532315101  0.3251183842780248  0.4999998997559447
  0.1578963247293384  0.5000456813489310  0.3252904911805365
  0.1582611349455139  0.6753462371651788  0.5000000468178338
  0.1661311180047662 -0.0004968216098825  0.8341548228608161
  0.1578970974339367  0.5000457264774966  0.6747087775760491
  0.1659913991452833  0.3326578862782596  0.1656934263043364
  0.1660010770051761  0.6677494454686372  0.1662994386445898
  0.1658652842100237  0.1656024501496857  0.3330890095703422
  0.1664296730976464  0.8340245522666103  0.3331334523856029
  0.1658652430227132  0.1656023989435803  0.6669106405763329
  0.1659913620480881  0.3326578767161201  0.8343063890079269
  0.1660009948029363  0.6677494509120373  0.8337006470850918
  0.1664296668083056  0.8340246237887378  0.6668664017758497
  0.1664788451034239  0.4997971301259179  0.0000000575350345
  0.1664020263419058 -0.0004067417474546  0.4999998926599749
  0.3332731629421444 -0.0004717626790015  0.0000001727030544
  0.3331916428247939  0.1665328779858227  0.1659421718384420
  0.3347932732042575  0.8342181576499950  0.1673306249049864
  0.3333787954956241  0.3245616498168186  0.3252889492732567
  0.3331586978270128  0.6750314267430217  0.3246492295107713
  0.3331916262095352  0.1665327727880645  0.8340577774001346
  0.3333787893630696  0.3245624762124262  0.6747102827524866
  0.3331587372093288  0.6750303643987888  0.6753499932139796
  0.3347933289009496  0.8342182975753468  0.8326697082459183
  0.3331306366547987  0.3331453256323498  0.0000000555346435
  0.3328712634808175  0.4995379115157911  0.1668474902850330
  0.3333323346139043  0.6671632641173643  0.0000001708011899
  0.3332626327512452  0.0000770495388265  0.3327538663067894
  0.3353317589013636  0.1640803746842376  0.5000000063173001
  0.3349603068608445  0.8327309050326807  0.5000000252423610
  0.3332626711792126  0.0000770480304056  0.6672459616956388
  0.3328712211902445  0.4995379220787838  0.8331521039560563
  0.5001595916071999  0.0002991142047681  0.1649551469237927
  0.5006677513449191  0.1652251190818239  0.0000000335823155
  0.5010828611386275  0.3326676497012842  0.1662995975184923
  0.5004967223338572  0.4999988743913455  0.0000001685502744
  0.5004112762751801  0.6670777065390177  0.1661598970165706
  0.5008309498643839  0.8342232403211296  0.0000001832992177
  0.5015995080481758 -0.0024379694238035  0.5000000280264632
  0.5004196874508050  0.1658371068245142  0.3326921633021250
  0.5086823894501231  0.3249247947804682  0.5000000578350479
  0.5083664075813582  0.4998255628748951  0.3246470747633404
  0.5186251688636190  0.6852917551684323  0.5000000273976732
  0.5016144927305882  0.8342757103882452  0.3320531199255721
  0.5001591400963734  0.0002998624102295  0.8350465331135065
  0.5004189016666786  0.1658382836200088  0.6673066841957833
  0.5010828724129612  0.3326676203242263  0.8337003930347404
  0.5004113043751892  0.6670777574579518  0.8338403528349471
  0.5016145236432639  0.8342758030609595  0.6679470508565705
  0.6676302148581391  0.3326660839426715  0.0000000942768204
  0.6675511912582341  0.5014598551981939  0.1673307283350873
  0.6675565554604471  0.6674975297713250  0.0000001813359737
  0.6676880708304842 -0.0014520628887841  0.3343871863526631
  0.6668767617616151  0.1644142670848522  0.4999999293289515
  0.5083653548876945  0.4998255902059777  0.6753521562403786
  0.6676881996165523 -0.0014521359237738  0.6656127480909617
  0.6675512133963442  0.5014597652877804  0.8326694808814331
  0.6668436305839672  0.1642455627212447  0.1686266384808481
  0.6669900652250851  0.8336568781556587  0.1678682176379764
  0.6673576465549343  0.3330961601226884  0.3331335017497735
  0.6676087767792314  0.6682810456189411  0.3320531394212026
  0.6668436793673638  0.1642455303946857  0.8313731982751579
  0.6673576516471400  0.3330962047645984  0.6668664187855837
  0.6676088753716921  0.6682809907139424  0.6679471318264666
  0.6669901234022014  0.8336569461605863  0.8321318225000213
  0.6670529663529107 -0.0002115790936077 -0.0000000025148679
  0.6660646663871467  0.5016269664427815  0.5000000544466257
  0.8328607141301023  0.4999397225006490  0.0000001107209751
  0.8308962144973389 -0.0024361613125581  0.4999997649305718
  0.8328360499998116  0.3327976810425085  0.1658451738075398
  0.8336319886459012  0.6668261930295527  0.1649549491208560
  0.8334394730789298  0.1654417707100310  0.3330514633189475
  0.8318808611635942  0.8343549261946837  0.3343869779321391
  0.8334394212404459  0.1654416441532874  0.6669482280320527
  0.8328359960446463  0.3327975897171127  0.8341547051592056
  0.8336319274722606  0.6668262739828841  0.8350451149764361
  0.8318807722149583  0.8343550108640938  0.6656128394392652
  0.8334980678891188  0.0001650290634771  0.1661658757053583
  0.8328942265779621  0.1658366631788276 -0.0000000891513467
  0.8331214074589213  0.8337198490062501 -0.0000000177758433
  0.8329259570395153  0.3330684793436919  0.4999999185055886
  0.8334097994970843  0.4999291022886068  0.3327537775938313
  0.8308947974196489  0.6682659380067513  0.5000000220601246
  0.8334980302691438  0.0001650098021768  0.8338341023987010
  0.8334098122703152  0.4999291014977804  0.6672460828360899
  0.3364464021664612  0.5031205822832593  0.5000021635688667
 
  0.00000000E+00  0.00000000E+00  0.00000000E+00
  0.00000000E+00  0.00000000E+00  0.00000000E+00
  0.00000000E+00  0.00000000E+00  0.00000000E+00
  0.00000000E+00  0.00000000E+00  0.00000000E+00
  0.00000000E+00  0.00000000E+00  0.00000000E+00
  0.00000000E+00  0.00000000E+00  0.00000000E+00
  0.00000000E+00  0.00000000E+00  0.00000000E+00
  0.00000000E+00  0.00000000E+00  0.00000000E+00
  0.00000000E+00  0.00000000E+00  0.00000000E+00
  0.00000000E+00  0.00000000E+00  0.00000000E+00
  0.00000000E+00  0.00000000E+00  0.00000000E+00
  0.00000000E+00  0.00000000E+00  0.00000000E+00
  0.00000000E+00  0.00000000E+00  0.00000000E+00
  0.00000000E+00  0.00000000E+00  0.00000000E+00
  0.00000000E+00  0.00000000E+00  0.00000000E+00
  0.00000000E+00  0.00000000E+00  0.00000000E+00
  0.00000000E+00  0.00000000E+00  0.00000000E+00
  0.00000000E+00  0.00000000E+00  0.00000000E+00
  0.00000000E+00  0.00000000E+00  0.00000000E+00
  0.00000000E+00  0.00000000E+00  0.00000000E+00
  0.00000000E+00  0.00000000E+00  0.00000000E+00
  0.00000000E+00  0.00000000E+00  0.00000000E+00
  0.00000000E+00  0.00000000E+00  0.00000000E+00
  0.00000000E+00  0.00000000E+00  0.00000000E+00
  0.00000000E+00  0.00000000E+00  0.00000000E+00
  0.00000000E+00  0.00000000E+00  0.00000000E+00
  0.00000000E+00  0.00000000E+00  0.00000000E+00
  0.00000000E+00  0.00000000E+00  0.00000000E+00
  0.00000000E+00  0.00000000E+00  0.00000000E+00
  0.00000000E+00  0.00000000E+00  0.00000000E+00
  0.00000000E+00  0.00000000E+00  0.00000000E+00
  0.00000000E+00  0.00000000E+00  0.00000000E+00
  0.00000000E+00  0.00000000E+00  0.00000000E+00
  0.00000000E+00  0.00000000E+00  0.00000000E+00
  0.00000000E+00  0.00000000E+00  0.00000000E+00
  0.00000000E+00  0.00000000E+00  0.00000000E+00
  0.00000000E+00  0.00000000E+00  0.00000000E+00
  0.00000000E+00  0.00000000E+00  0.00000000E+00
  0.00000000E+00  0.00000000E+00  0.00000000E+00
  0.00000000E+00  0.00000000E+00  0.00000000E+00
  0.00000000E+00  0.00000000E+00  0.00000000E+00
  0.00000000E+00  0.00000000E+00  0.00000000E+00
  0.00000000E+00  0.00000000E+00  0.00000000E+00
  0.00000000E+00  0.00000000E+00  0.00000000E+00
  0.00000000E+00  0.00000000E+00  0.00000000E+00
  0.00000000E+00  0.00000000E+00  0.00000000E+00
  0.00000000E+00  0.00000000E+00  0.00000000E+00
  0.00000000E+00  0.00000000E+00  0.00000000E+00
  0.00000000E+00  0.00000000E+00  0.00000000E+00
  0.00000000E+00  0.00000000E+00  0.00000000E+00
  0.00000000E+00  0.00000000E+00  0.00000000E+00
  0.00000000E+00  0.00000000E+00  0.00000000E+00
  0.00000000E+00  0.00000000E+00  0.00000000E+00
  0.00000000E+00  0.00000000E+00  0.00000000E+00
  0.00000000E+00  0.00000000E+00  0.00000000E+00
  0.00000000E+00  0.00000000E+00  0.00000000E+00
  0.00000000E+00  0.00000000E+00  0.00000000E+00
  0.00000000E+00  0.00000000E+00  0.00000000E+00
  0.00000000E+00  0.00000000E+00  0.00000000E+00
  0.00000000E+00  0.00000000E+00  0.00000000E+00
  0.00000000E+00  0.00000000E+00  0.00000000E+00
  0.00000000E+00  0.00000000E+00  0.00000000E+00
  0.00000000E+00  0.00000000E+00  0.00000000E+00
  0.00000000E+00  0.00000000E+00  0.00000000E+00
  0.00000000E+00  0.00000000E+00  0.00000000E+00
  0.00000000E+00  0.00000000E+00  0.00000000E+00
  0.00000000E+00  0.00000000E+00  0.00000000E+00
  0.00000000E+00  0.00000000E+00  0.00000000E+00
  0.00000000E+00  0.00000000E+00  0.00000000E+00
  0.00000000E+00  0.00000000E+00  0.00000000E+00
  0.00000000E+00  0.00000000E+00  0.00000000E+00
  0.00000000E+00  0.00000000E+00  0.00000000E+00
  0.00000000E+00  0.00000000E+00  0.00000000E+00
  0.00000000E+00  0.00000000E+00  0.00000000E+00
  0.00000000E+00  0.00000000E+00  0.00000000E+00
  0.00000000E+00  0.00000000E+00  0.00000000E+00
  0.00000000E+00  0.00000000E+00  0.00000000E+00
  0.00000000E+00  0.00000000E+00  0.00000000E+00
  0.00000000E+00  0.00000000E+00  0.00000000E+00
  0.00000000E+00  0.00000000E+00  0.00000000E+00
  0.00000000E+00  0.00000000E+00  0.00000000E+00
  0.00000000E+00  0.00000000E+00  0.00000000E+00
  0.00000000E+00  0.00000000E+00  0.00000000E+00
  0.00000000E+00  0.00000000E+00  0.00000000E+00
  0.00000000E+00  0.00000000E+00  0.00000000E+00
  0.00000000E+00  0.00000000E+00  0.00000000E+00
  0.00000000E+00  0.00000000E+00  0.00000000E+00
  0.00000000E+00  0.00000000E+00  0.00000000E+00
  0.00000000E+00  0.00000000E+00  0.00000000E+00
  0.00000000E+00  0.00000000E+00  0.00000000E+00
  0.00000000E+00  0.00000000E+00  0.00000000E+00
  0.00000000E+00  0.00000000E+00  0.00000000E+00
  0.00000000E+00  0.00000000E+00  0.00000000E+00
  0.00000000E+00  0.00000000E+00  0.00000000E+00
  0.00000000E+00  0.00000000E+00  0.00000000E+00
  0.00000000E+00  0.00000000E+00  0.00000000E+00
  0.00000000E+00  0.00000000E+00  0.00000000E+00
  0.00000000E+00  0.00000000E+00  0.00000000E+00
  0.00000000E+00  0.00000000E+00  0.00000000E+00
  0.00000000E+00  0.00000000E+00  0.00000000E+00
  0.00000000E+00  0.00000000E+00  0.00000000E+00
  0.00000000E+00  0.00000000E+00  0.00000000E+00
  0.00000000E+00  0.00000000E+00  0.00000000E+00
  0.00000000E+00  0.00000000E+00  0.00000000E+00
  0.00000000E+00  0.00000000E+00  0.00000000E+00
  0.00000000E+00  0.00000000E+00  0.00000000E+00
  0.00000000E+00  0.00000000E+00  0.00000000E+00
