fcc_Fe_CON_333                          
   1.00000000000000     
    10.3348470473793466    0.0000000000000000    0.0000000000000000
     0.0000000000000000   10.3348470473793466   -0.0000000000000000
     0.0000000000000000    0.0000000000000000   10.3348470473793466
   Fe  Te
   106  1
Direct
0.000000000 	0.000000000 	0.000000000 
0.000000000 	0.166668933 	0.166668933 
0.000000000 	0.333331062 	0.000000000 
0.000000000 	0.500000000 	0.166668938 
0.000000000 	0.666668967 	0.000000000 
0.000000000 	0.833331038 	0.166668933 
0.000000000 	0.000000000 	0.333331062 
0.000000000 	0.166668938 	0.500000000 
0.000000000 	0.333331067 	0.333331067 
0.000000000 	0.500000000 	0.500000000 
0.000000000 	0.666668962 	0.333331067 
0.000000000 	0.833331033 	0.500000000 
0.000000000 	0.000000000 	0.666668967 
0.000000000 	0.166668933 	0.833331038 
0.000000000 	0.333331067 	0.666668962 
0.000000000 	0.500000000 	0.833331033 
0.000000000 	0.666668962 	0.666668962 
0.000000000 	0.833331038 	0.833331038 
0.166668933 	0.000000000 	0.166668933 
0.166668933 	0.166668933 	0.000000000 
0.166668933 	0.833331038 	0.000000000 
0.166668933 	0.333331067 	0.500000000 
0.166668933 	0.500000000 	0.333331067 
0.166668933 	0.666668962 	0.500000000 
0.166668933 	0.000000000 	0.833331038 
0.166668933 	0.500000000 	0.666668962 
0.166668934 	0.333331066 	0.166668934 
0.166668934 	0.666668963 	0.166668934 
0.166668934 	0.166668934 	0.333331066 
0.166668934 	0.833331037 	0.333331066 
0.166668934 	0.166668934 	0.666668963 
0.166668934 	0.333331066 	0.833331037 
0.166668934 	0.666668963 	0.833331037 
0.166668934 	0.833331037 	0.666668963 
0.166668938 	0.500000000 	0.000000000 
0.166668938 	0.000000000 	0.500000000 
0.333331062 	0.000000000 	0.000000000 
0.333331066 	0.166668934 	0.166668934 
0.333331066 	0.833331037 	0.166668934 
0.333331066 	0.333331066 	0.333331066 
0.333331066 	0.666668963 	0.333331066 
0.333331066 	0.166668934 	0.833331037 
0.333331066 	0.333331066 	0.666668963 
0.333331066 	0.666668963 	0.666668963 
0.333331066 	0.833331037 	0.833331037 
0.333331067 	0.333331067 	0.000000000 
0.333331067 	0.500000000 	0.166668933 
0.333331067 	0.666668962 	0.000000000 
0.333331067 	0.000000000 	0.333331067 
0.333331067 	0.166668933 	0.500000000 
0.333331067 	0.833331038 	0.500000000 
0.333331067 	0.000000000 	0.666668962 
0.333331067 	0.500000000 	0.833331038 
0.500000000 	0.000000000 	0.166668938 
0.500000000 	0.166668938 	0.000000000 
0.500000000 	0.333331067 	0.166668933 
0.500000000 	0.500000000 	0.000000000 
0.500000000 	0.666668962 	0.166668933 
0.500000000 	0.833331033 	0.000000000 
0.500000000 	0.000000000 	0.500000000 
0.500000000 	0.166668933 	0.333331067 
0.500000000 	0.333331062 	0.500000000 
0.500000000 	0.500000000 	0.333331062 
0.500000000 	0.666668967 	0.500000000 
0.500000000 	0.833331038 	0.333331067 
0.500000000 	0.000000000 	0.833331033 
0.500000000 	0.166668933 	0.666668962 
0.500000000 	0.333331067 	0.833331038 
0.500000000 	0.666668962 	0.833331038 
0.500000000 	0.833331038 	0.666668962 
0.666668962 	0.333331067 	0.000000000 
0.666668962 	0.500000000 	0.166668933 
0.666668962 	0.666668962 	0.000000000 
0.666668962 	0.000000000 	0.333331067 
0.666668962 	0.166668933 	0.500000000 
0.666668962 	0.833331038 	0.500000000 
0.666668962 	0.000000000 	0.666668962 
0.666668962 	0.500000000 	0.833331038 
0.666668963 	0.166668934 	0.166668934 
0.666668963 	0.833331037 	0.166668934 
0.666668963 	0.333331066 	0.333331066 
0.666668963 	0.666668963 	0.333331066 
0.666668963 	0.166668934 	0.833331037 
0.666668963 	0.333331066 	0.666668963 
0.666668963 	0.666668963 	0.666668963 
0.666668963 	0.833331037 	0.833331037 
0.666668967 	0.000000000 	0.000000000 
0.666668967 	0.500000000 	0.500000000 
0.833331033 	0.500000000 	0.000000000 
0.833331033 	0.000000000 	0.500000000 
0.833331037 	0.333331066 	0.166668934 
0.833331037 	0.666668963 	0.166668934 
0.833331037 	0.166668934 	0.333331066 
0.833331037 	0.833331037 	0.333331066 
0.833331037 	0.166668934 	0.666668963 
0.833331037 	0.333331066 	0.833331037 
0.833331037 	0.666668963 	0.833331037 
0.833331037 	0.833331037 	0.666668963 
0.833331038 	0.000000000 	0.166668933 
0.833331038 	0.166668933 	0.000000000 
0.833331038 	0.833331038 	0.000000000 
0.833331038 	0.333331067 	0.500000000 
0.833331038 	0.500000000 	0.333331067 
0.833331038 	0.666668962 	0.500000000 
0.833331038 	0.000000000 	0.833331038 
0.833331038 	0.500000000 	0.666668962 
0.333331062 	0.500000000 	0.500000000 


