SYSTEM=Opt
ISTART=0
ICHARG=2
LREAL=Auto
LWAVE =.F.
LCHARG=.F.

ENCUT=500
ALGO = Fast
EDIFF =1E-6

NSW=100
POTIM=0.5
IBRION =2
ISIF=3

ISPIN=1
#MAGMOM = 108*5
NELM=400
EDIFFG=-0.01

NCORE=4

NGX=72
NGY=72
NGZ=72


#NELMDL=5
#LMAXMIX=4
#AMIX=0.2
#BMIX=0.0001
#AMIX_MAG=0.8
#BMIX_MAG=0.0001
