pymatgen generated KPOINTS with grid density = 1074 / atom
0
Monkhorst
3 3 3

