fcc_Fe_CON_333                          
   1.00000000000000     
    10.3348470473793466    0.0000000000000000    0.0000000000000000
     0.0000000000000000   10.3348470473793466    0.0000000000000000
     0.0000000000000000    0.0000000000000000   10.3348470473793466
   Fe   Te
   106     1
Direct
 -0.0003410783426465  0.0001991231594761 -0.0001985536010423
 -0.0023042650879828  0.1643630316094837  0.1664378309343270
 -0.0015936378644004  0.3329036854192487  0.0003441946215608
 -0.0025562625291169  0.5021898756843003  0.1663444774522661
 -0.0011485948550893  0.6669367439153119 -0.0001349268085704
 -0.0018307530894470  0.8335414774149560  0.1664586899749096
 -0.0011489018858312  0.0001355387166314  0.3330623239921701
 -0.0003882570099638  0.1662788493679761  0.5004079744963560
 -0.0009153358391056  0.3326357270010741  0.3321989038739570
  0.0005130479892282  0.4997668283133749  0.5002325637001257
 -0.0005711913502233  0.6672471075564772  0.3327523005359693
 -0.0025562182186313  0.8336557324778318  0.4978091801057865
 -0.0015936079667232 -0.0003436413163683  0.6670961621239281
 -0.0000669210293251  0.1666003180624665  0.8334002452381688
 -0.0007173874423127  0.3326566907243406  0.6673430427429315
 -0.0003880514506715  0.4995911377946120  0.8337214512874993
 -0.0009152460512601  0.6678004523872814  0.6673641224848149
 -0.0023039914380986  0.8335620753057539  0.8356372953688348
  0.1662653995881984 -0.0005904601075413  0.1654219847056033
  0.1662374443794608  0.1650735977756998  0.0003441465667012
  0.1662654751843869  0.8345780910919026  0.0005911238414830
  0.1579189705022095  0.3245855370858010  0.4998816187061327
  0.1579164199769892  0.5000835713679548  0.3240437444507028
  0.1579162522872463  0.6759559164422118  0.4999158498192697
  0.1662375150678923 -0.0003436545268218  0.8349268302768226
  0.1579190778517739  0.5001177911167224  0.6754144957685165
  0.1659173169722148  0.3325835802553032  0.1657247174248082
  0.1659710375509321  0.6678965052854733  0.1658953570932751
  0.1659694294944152  0.1657518619073971  0.3321989144441788
  0.1659709993301318  0.8341048389998930  0.3321029184138564
  0.1659903265084277  0.1659497092018115  0.6673430859106226
  0.1659904374680667  0.3326567689327794  0.8340506901201371
  0.1659694986874741  0.6678004227808254  0.8342486765664218
  0.1659174185361259  0.8342753512405536  0.6674162414140253
  0.1664153463630242  0.5002769377341746  0.0003453215456309
  0.1664153606134522 -0.0003446375347966  0.4997221746840842
  0.3331776932612655  0.0002354040117743 -0.0002347357666597
  0.3355242813225487  0.1641109012815042  0.1663444383598568
  0.3351658500338486  0.8338757551520362  0.1661246195201344
  0.3334177294962158  0.3245832747570341  0.3240440770498524
  0.3338386503088338  0.6755017945381712  0.3244977319934448
  0.3329254652183576  0.1662789109453834  0.8337215611283313
  0.3334519449120881  0.3245860678410713  0.6754140698668167
  0.3334177545831701  0.6759554446820324  0.6754169848674441
  0.3355242793015004  0.8336556457457619  0.8358896288053272
  0.3336112368903720  0.3330816562100299  0.0003453308098695
  0.3352410236447084  0.5019067993034140  0.1667427299349886
  0.3331644219836910  0.6666578267088684 -0.0000880859316545
  0.3331645076685954  0.0000888129439044  0.3333416660916343
  0.3331007425182211  0.1671819595889586  0.5002328248906185
  0.3352409885523953  0.8332575836760381  0.4980926055881344
  0.3336112361477191 -0.0003446550550172  0.6669181219563174
  0.3331009871217431  0.4997668267982085  0.8328201975232613
  0.5017851278844357 -0.0014641041102423  0.1654092587953640
  0.5002706710439646  0.1655184681211066 -0.0001349153126533
  0.5012302981910263  0.3326373388878902  0.1658953133516406
  0.4999916997496549  0.4998301310787215 -0.0000881027052062
  0.5014253646726770  0.6680914827137797  0.1651541157910124
  0.5017851636460147  0.8345910578306195  0.0014650680085712
  0.4999916599036167  0.0000888474705529  0.5001689982978770
  0.5005809833616088  0.1660958557210994  0.3327523188535395
  0.5092889074667613  0.3245835419815917  0.4999158585544727
  0.5088350895932995  0.5005044644054868  0.3244982935263426
  0.5088353721619178  0.6755015386928579  0.4994950068495192
  0.5014254493320064  0.8348462650554378  0.3319080596527074
  0.5002705298280572  0.0001355219093575  0.8344819070078727
  0.5011343061198628  0.1657519007964908  0.6673640708401112
  0.5011342674030586  0.3326358162765811  0.8342487021443636
  0.5005809590123728  0.6672471362121011  0.8339047054876529
  0.5012303014058188  0.8341048318413349  0.6673625432056123
  0.6679109800638378  0.3329316898444996  0.0005910709843708
  0.6672085960723431  0.5018313696900323  0.1661244835205406
  0.6679239128837803  0.6684512376707952  0.0014649984317268
  0.6679240220011803 -0.0014641525311906  0.3315481224075878
  0.6669886516501771  0.1641108156225646  0.4978091547021977
  0.6672085088288499  0.8338758388515221  0.4981676999686206
  0.6679109690805298 -0.0005904435500729  0.6670682197941477
  0.6669885135844057  0.5021898595867487  0.8358897462931834
  0.6668743643115880  0.1648364351595115  0.1664586354344984
  0.5092887514977511  0.5000835628667255  0.6754165148983634
  0.6674377250431384  0.3326372557762394  0.3321029247712671
  0.6681791179857052  0.6680914960163034  0.3319081180279789
  0.6668949765368880  0.1643631928301661  0.8356373830220494
  0.6676081573577620  0.3325836211300672  0.6674162363849622
  0.6674376408757243  0.6678965441206243  0.6673625680114547
  0.6668742871303701  0.8335414931829095  0.8351641771301309
  0.6669126366281930 -0.0014081898807286  0.0014087950208124
  0.6665903251755727  0.5019067654439741  0.4980925699385541
  0.8335679177299593  0.4998431909197477 -0.0002347523317191
  0.8335678292885006  0.0002354140897804  0.5001558303398225
  0.8327421247059726  0.3329316052092993  0.1654219462071701
  0.8318684422943704  0.6684511582493268  0.1654092135835277
  0.8334680194261272  0.1655181924279232  0.3330622960801026
  0.8318683277258316  0.8345911962737098  0.3315481706490127
  0.8329888867373109  0.1650735659790540  0.6670961882311417
  0.8329888622704735  0.3329037026692854  0.8349268836261049
  0.8334680623427230  0.6669366583303575  0.8344819086039671
  0.8327420632574659  0.8345781585428614  0.6670682501059919
  0.8319234158306369 -0.0014089477117090  0.1664184141940360
  0.8335315272286706  0.1663260998138939 -0.0001985382062370
  0.8319241630958316  0.8335797620907833  0.0014088126771000
  0.8329878049805823  0.3330814971602773  0.4997221296611201
  0.8334212708118401  0.4998301405270279  0.3333415096531013
  0.8334212726468667  0.6666579174463704  0.5001690349577835
  0.8335315189854672  0.0001991080495858  0.8336746333759766
  0.8329878237551953  0.5002769300157031  0.6669182685721398
  0.3333175505361286  0.4999826344285170  0.5000170069646259
 
  0.00000000E+00  0.00000000E+00  0.00000000E+00
  0.00000000E+00  0.00000000E+00  0.00000000E+00
  0.00000000E+00  0.00000000E+00  0.00000000E+00
  0.00000000E+00  0.00000000E+00  0.00000000E+00
  0.00000000E+00  0.00000000E+00  0.00000000E+00
  0.00000000E+00  0.00000000E+00  0.00000000E+00
  0.00000000E+00  0.00000000E+00  0.00000000E+00
  0.00000000E+00  0.00000000E+00  0.00000000E+00
  0.00000000E+00  0.00000000E+00  0.00000000E+00
  0.00000000E+00  0.00000000E+00  0.00000000E+00
  0.00000000E+00  0.00000000E+00  0.00000000E+00
  0.00000000E+00  0.00000000E+00  0.00000000E+00
  0.00000000E+00  0.00000000E+00  0.00000000E+00
  0.00000000E+00  0.00000000E+00  0.00000000E+00
  0.00000000E+00  0.00000000E+00  0.00000000E+00
  0.00000000E+00  0.00000000E+00  0.00000000E+00
  0.00000000E+00  0.00000000E+00  0.00000000E+00
  0.00000000E+00  0.00000000E+00  0.00000000E+00
  0.00000000E+00  0.00000000E+00  0.00000000E+00
  0.00000000E+00  0.00000000E+00  0.00000000E+00
  0.00000000E+00  0.00000000E+00  0.00000000E+00
  0.00000000E+00  0.00000000E+00  0.00000000E+00
  0.00000000E+00  0.00000000E+00  0.00000000E+00
  0.00000000E+00  0.00000000E+00  0.00000000E+00
  0.00000000E+00  0.00000000E+00  0.00000000E+00
  0.00000000E+00  0.00000000E+00  0.00000000E+00
  0.00000000E+00  0.00000000E+00  0.00000000E+00
  0.00000000E+00  0.00000000E+00  0.00000000E+00
  0.00000000E+00  0.00000000E+00  0.00000000E+00
  0.00000000E+00  0.00000000E+00  0.00000000E+00
  0.00000000E+00  0.00000000E+00  0.00000000E+00
  0.00000000E+00  0.00000000E+00  0.00000000E+00
  0.00000000E+00  0.00000000E+00  0.00000000E+00
  0.00000000E+00  0.00000000E+00  0.00000000E+00
  0.00000000E+00  0.00000000E+00  0.00000000E+00
  0.00000000E+00  0.00000000E+00  0.00000000E+00
  0.00000000E+00  0.00000000E+00  0.00000000E+00
  0.00000000E+00  0.00000000E+00  0.00000000E+00
  0.00000000E+00  0.00000000E+00  0.00000000E+00
  0.00000000E+00  0.00000000E+00  0.00000000E+00
  0.00000000E+00  0.00000000E+00  0.00000000E+00
  0.00000000E+00  0.00000000E+00  0.00000000E+00
  0.00000000E+00  0.00000000E+00  0.00000000E+00
  0.00000000E+00  0.00000000E+00  0.00000000E+00
  0.00000000E+00  0.00000000E+00  0.00000000E+00
  0.00000000E+00  0.00000000E+00  0.00000000E+00
  0.00000000E+00  0.00000000E+00  0.00000000E+00
  0.00000000E+00  0.00000000E+00  0.00000000E+00
  0.00000000E+00  0.00000000E+00  0.00000000E+00
  0.00000000E+00  0.00000000E+00  0.00000000E+00
  0.00000000E+00  0.00000000E+00  0.00000000E+00
  0.00000000E+00  0.00000000E+00  0.00000000E+00
  0.00000000E+00  0.00000000E+00  0.00000000E+00
  0.00000000E+00  0.00000000E+00  0.00000000E+00
  0.00000000E+00  0.00000000E+00  0.00000000E+00
  0.00000000E+00  0.00000000E+00  0.00000000E+00
  0.00000000E+00  0.00000000E+00  0.00000000E+00
  0.00000000E+00  0.00000000E+00  0.00000000E+00
  0.00000000E+00  0.00000000E+00  0.00000000E+00
  0.00000000E+00  0.00000000E+00  0.00000000E+00
  0.00000000E+00  0.00000000E+00  0.00000000E+00
  0.00000000E+00  0.00000000E+00  0.00000000E+00
  0.00000000E+00  0.00000000E+00  0.00000000E+00
  0.00000000E+00  0.00000000E+00  0.00000000E+00
  0.00000000E+00  0.00000000E+00  0.00000000E+00
  0.00000000E+00  0.00000000E+00  0.00000000E+00
  0.00000000E+00  0.00000000E+00  0.00000000E+00
  0.00000000E+00  0.00000000E+00  0.00000000E+00
  0.00000000E+00  0.00000000E+00  0.00000000E+00
  0.00000000E+00  0.00000000E+00  0.00000000E+00
  0.00000000E+00  0.00000000E+00  0.00000000E+00
  0.00000000E+00  0.00000000E+00  0.00000000E+00
  0.00000000E+00  0.00000000E+00  0.00000000E+00
  0.00000000E+00  0.00000000E+00  0.00000000E+00
  0.00000000E+00  0.00000000E+00  0.00000000E+00
  0.00000000E+00  0.00000000E+00  0.00000000E+00
  0.00000000E+00  0.00000000E+00  0.00000000E+00
  0.00000000E+00  0.00000000E+00  0.00000000E+00
  0.00000000E+00  0.00000000E+00  0.00000000E+00
  0.00000000E+00  0.00000000E+00  0.00000000E+00
  0.00000000E+00  0.00000000E+00  0.00000000E+00
  0.00000000E+00  0.00000000E+00  0.00000000E+00
  0.00000000E+00  0.00000000E+00  0.00000000E+00
  0.00000000E+00  0.00000000E+00  0.00000000E+00
  0.00000000E+00  0.00000000E+00  0.00000000E+00
  0.00000000E+00  0.00000000E+00  0.00000000E+00
  0.00000000E+00  0.00000000E+00  0.00000000E+00
  0.00000000E+00  0.00000000E+00  0.00000000E+00
  0.00000000E+00  0.00000000E+00  0.00000000E+00
  0.00000000E+00  0.00000000E+00  0.00000000E+00
  0.00000000E+00  0.00000000E+00  0.00000000E+00
  0.00000000E+00  0.00000000E+00  0.00000000E+00
  0.00000000E+00  0.00000000E+00  0.00000000E+00
  0.00000000E+00  0.00000000E+00  0.00000000E+00
  0.00000000E+00  0.00000000E+00  0.00000000E+00
  0.00000000E+00  0.00000000E+00  0.00000000E+00
  0.00000000E+00  0.00000000E+00  0.00000000E+00
  0.00000000E+00  0.00000000E+00  0.00000000E+00
  0.00000000E+00  0.00000000E+00  0.00000000E+00
  0.00000000E+00  0.00000000E+00  0.00000000E+00
  0.00000000E+00  0.00000000E+00  0.00000000E+00
  0.00000000E+00  0.00000000E+00  0.00000000E+00
  0.00000000E+00  0.00000000E+00  0.00000000E+00
  0.00000000E+00  0.00000000E+00  0.00000000E+00
  0.00000000E+00  0.00000000E+00  0.00000000E+00
  0.00000000E+00  0.00000000E+00  0.00000000E+00
  0.00000000E+00  0.00000000E+00  0.00000000E+00
