fcc_Fe_CON_333                          
   1.00000000000000     
    10.3348470473793466    0.0000000000000000    0.0000000000000000
     0.0000000000000000   10.3348470473793466    0.0000000000000000
     0.0000000000000000    0.0000000000000000   10.3348470473793466
   Fe
   107
Direct
 -0.0001659109651207 -0.0000000115691919  0.0000004915543832
 -0.0002529664109582  0.1664149526800844  0.1664166924036239
  0.0001933034429195  0.3337671501134445  0.0000005098987404
  0.0019949163754517  0.5000000071023843  0.1686627828994524
  0.0001932897340822  0.6662328824158817  0.0000004876569484
 -0.0002530046558059  0.8335851631839656  0.1664167210487270
  0.0001933132125337 -0.0000000061304063  0.3337684265271261
  0.0019948732527375  0.1686609068638701  0.4999997527755024
 -0.0001116070795783  0.3331918689867808  0.3331931135365291
  0.0018371393373832  0.4999999188431811  0.4999995826138465
 -0.0001115958237446  0.6668081934578625  0.3331931338164112
  0.0019949671592634  0.8313390363969012  0.4999996493981970
  0.0001933244045139 -0.0000000193878464  0.6662313045334255
 -0.0002529206843674  0.1664149802365046  0.8335838788228583
 -0.0001116155708098  0.3331918681495272  0.6668065983027202
  0.0019949683588833  0.5000000213113855  0.8313378769936012
 -0.0001116099635805  0.6668082010810389  0.6668065867497451
 -0.0002530019736736  0.8335850992245394  0.8335838624237367
  0.1671005820489487  0.0000000213946462  0.1668627537304934
  0.1671006069254731  0.1668610014211612  0.0000005109778617
  0.1671006075072392  0.8331390946538744  0.0000004794689774
  0.1676426454799622  0.3343057058728540  0.4999985966785534
  0.1676425150329672  0.5000010691313632  0.3343071615463424
  0.1676427245981610  0.6656943500609945  0.4999985535423847
  0.1671006107176439  0.0000000030526782  0.8331378440029842
  0.1676428807071581  0.5000000317754042  0.6656916591365457
  0.1665258764658567  0.3331912347563724  0.1665577714149365
  0.1665258695460102  0.6668087802199425  0.1665577853529391
  0.1665259440778494  0.1665560092983223  0.3331925760180551
  0.1665259747136825  0.8334440280787799  0.3331926041083874
  0.1665259300836351  0.1665559354864442  0.6668071429537623
  0.1665258743362044  0.3331912248943052  0.8334428513524496
  0.1665258948051324  0.6668088087293342  0.8334428206545004
  0.1665259616366419  0.8334440824396825  0.6668071232963078
  0.1671247470172046  0.5000000106510458  0.0000004399742991
  0.1671248237220760 -0.0000000249296217  0.4999996578910862
  0.3333345512142785  0.0000000106210474  0.0000005095381145
  0.3333353717672795  0.1686596967804013  0.1686615451169804
  0.3333353471214048  0.8313404000921442  0.1686614435728062
  0.3333310869042268  0.3343054199214828  0.3343070484329366
  0.3333309970245983  0.6656945996148003  0.3343070021567565
  0.3333353419350187  0.1686596917568281  0.8313391738027632
  0.3333310364812400  0.3343053112416204  0.6656927716264375
  0.3333317261738670  0.6656945988728260  0.6656914227207540
  0.3333353792338335  0.8313403502388304  0.8313390112492249
  0.3333345942310259  0.3337905615369681  0.0000004616812858
  0.3333346695193976  0.5000000005854150  0.1685069991650277
  0.3333345892835568  0.6662094564928368  0.0000003941868059
  0.3333345853687011  0.0000000196707770  0.3337919895561740
  0.3333347310250544  0.1685050541111413  0.4999996332215121
  0.3333346080583596  0.8314948889900765  0.4999996067709837
  0.3333345854765968 -0.0000000281991064  0.6662076909764467
  0.3333346338494146  0.5000000383716965  0.8314936479076016
  0.4995676200851591  0.0000000213173229  0.1668626906596706
  0.4995675955109047  0.1668610061301138  0.0000004768033106
  0.5001422375553025  0.3331915025216653  0.1665578389237661
  0.4995435019622103  0.4999999944058071  0.0000003342006800
  0.5001422383789783  0.6668085467452297  0.1665577924948002
  0.4995675995778538  0.8331390676493586  0.0000003988661271
  0.4995433423056887 -0.0000001271991971  0.4999996231698998
  0.5001421970739621  0.1665560241797430  0.3331928828216286
  0.4990252250930143  0.3343058181872195  0.4999984726891197
  0.4990245885459334  0.5000006476931859  0.3343098721489025
  0.4990249527104039  0.6656940216552238  0.4999984627314283
  0.5001421360363039  0.8334440269392405  0.3331928518168715
  0.4995676040976426 -0.0000000456622505  0.8331378104854070
  0.5001421989655219  0.1665559929619928  0.6668068108967513
  0.5001422455950120  0.3331915128226106  0.8334427876731056
  0.5001422766896253  0.6668085926533701  0.8334427806108103
  0.5001421730788880  0.8334439926856310  0.6668069041971920
  0.6664726090057589  0.3337674608283286  0.0000004250378072
  0.6646707422584218  0.4999999659712167  0.1686632832133971
  0.6664726241791618  0.6662326435521730  0.0000003353470974
  0.6664726181953265 -0.0000000942157759  0.3337686683297248
  0.6646709984878981  0.1686605615645353  0.4999995441865283
  0.6646705419561638  0.8313376200705674  0.4999994942268822
  0.6664726204945056 -0.0000001520202866  0.6662310369375759
  0.6646704328731171  0.4999999362520834  0.8313361792740807
  0.6669191668325056  0.1664149628220054  0.1664167167604594
  0.6669191784666811  0.8335850151773055  0.1664165948729663
  0.6667772550281176  0.3331918870062604  0.3331933544669424
  0.6667773174910984  0.6668081287146571  0.3331931770283951
  0.6669191305207842  0.1664149222652416  0.8335838086302794
  0.6667772823938422  0.3331918099363252  0.6668063182341745
  0.6667773076458212  0.6668082534459454  0.6668065686122767
  0.6669191210362807  0.8335849989443574  0.8335839002620733
  0.6668320255013032 -0.0000000465673246  0.0000005040639798
  0.6648283915062589  0.4999998805796196  0.4999995155185890
  0.8333321253589890  0.5000000146324546  0.0000004257664087
  0.8333322250457226 -0.0000001047847827  0.4999996558254066
  0.8333323120548055  0.3337672357502526  0.1668626003917264
  0.8333323102497265  0.6662328142525251  0.1668625495773969
  0.8333323051360324  0.1668608381602646  0.3337685126905087
  0.8333323028997748  0.8331391658973983  0.3337685583359200
  0.8333322823632714  0.1668608125641247  0.6662311679783124
  0.8333322687805349  0.3337672847000720  0.8331379488169131
  0.8333322172379763  0.6662327937313377  0.8331379130629446
  0.8333322416543800  0.8331391484730631  0.6662311351820239
  0.8333321524647029  0.0000000045795655  0.1665032752502006
  0.8333321389401238  0.1665015966347675  0.0000005284263946
  0.8333321487440369  0.8334984554511790  0.0000005291297429
  0.8333325759171165  0.3337906051541665  0.4999995996991089
  0.8333326476008430  0.4999999504208337  0.3337919956710162
  0.8333326726206500  0.6662094544136006  0.4999996052767529
  0.8333321274263642 -0.0000000317785026  0.8334972478079123
  0.8333326600435925  0.4999999912297983  0.6662077043750937
  0.4990243600860762  0.4999999698571034  0.6656883948044660
 
  0.00000000E+00  0.00000000E+00  0.00000000E+00
  0.00000000E+00  0.00000000E+00  0.00000000E+00
  0.00000000E+00  0.00000000E+00  0.00000000E+00
  0.00000000E+00  0.00000000E+00  0.00000000E+00
  0.00000000E+00  0.00000000E+00  0.00000000E+00
  0.00000000E+00  0.00000000E+00  0.00000000E+00
  0.00000000E+00  0.00000000E+00  0.00000000E+00
  0.00000000E+00  0.00000000E+00  0.00000000E+00
  0.00000000E+00  0.00000000E+00  0.00000000E+00
  0.00000000E+00  0.00000000E+00  0.00000000E+00
  0.00000000E+00  0.00000000E+00  0.00000000E+00
  0.00000000E+00  0.00000000E+00  0.00000000E+00
  0.00000000E+00  0.00000000E+00  0.00000000E+00
  0.00000000E+00  0.00000000E+00  0.00000000E+00
  0.00000000E+00  0.00000000E+00  0.00000000E+00
  0.00000000E+00  0.00000000E+00  0.00000000E+00
  0.00000000E+00  0.00000000E+00  0.00000000E+00
  0.00000000E+00  0.00000000E+00  0.00000000E+00
  0.00000000E+00  0.00000000E+00  0.00000000E+00
  0.00000000E+00  0.00000000E+00  0.00000000E+00
  0.00000000E+00  0.00000000E+00  0.00000000E+00
  0.00000000E+00  0.00000000E+00  0.00000000E+00
  0.00000000E+00  0.00000000E+00  0.00000000E+00
  0.00000000E+00  0.00000000E+00  0.00000000E+00
  0.00000000E+00  0.00000000E+00  0.00000000E+00
  0.00000000E+00  0.00000000E+00  0.00000000E+00
  0.00000000E+00  0.00000000E+00  0.00000000E+00
  0.00000000E+00  0.00000000E+00  0.00000000E+00
  0.00000000E+00  0.00000000E+00  0.00000000E+00
  0.00000000E+00  0.00000000E+00  0.00000000E+00
  0.00000000E+00  0.00000000E+00  0.00000000E+00
  0.00000000E+00  0.00000000E+00  0.00000000E+00
  0.00000000E+00  0.00000000E+00  0.00000000E+00
  0.00000000E+00  0.00000000E+00  0.00000000E+00
  0.00000000E+00  0.00000000E+00  0.00000000E+00
  0.00000000E+00  0.00000000E+00  0.00000000E+00
  0.00000000E+00  0.00000000E+00  0.00000000E+00
  0.00000000E+00  0.00000000E+00  0.00000000E+00
  0.00000000E+00  0.00000000E+00  0.00000000E+00
  0.00000000E+00  0.00000000E+00  0.00000000E+00
  0.00000000E+00  0.00000000E+00  0.00000000E+00
  0.00000000E+00  0.00000000E+00  0.00000000E+00
  0.00000000E+00  0.00000000E+00  0.00000000E+00
  0.00000000E+00  0.00000000E+00  0.00000000E+00
  0.00000000E+00  0.00000000E+00  0.00000000E+00
  0.00000000E+00  0.00000000E+00  0.00000000E+00
  0.00000000E+00  0.00000000E+00  0.00000000E+00
  0.00000000E+00  0.00000000E+00  0.00000000E+00
  0.00000000E+00  0.00000000E+00  0.00000000E+00
  0.00000000E+00  0.00000000E+00  0.00000000E+00
  0.00000000E+00  0.00000000E+00  0.00000000E+00
  0.00000000E+00  0.00000000E+00  0.00000000E+00
  0.00000000E+00  0.00000000E+00  0.00000000E+00
  0.00000000E+00  0.00000000E+00  0.00000000E+00
  0.00000000E+00  0.00000000E+00  0.00000000E+00
  0.00000000E+00  0.00000000E+00  0.00000000E+00
  0.00000000E+00  0.00000000E+00  0.00000000E+00
  0.00000000E+00  0.00000000E+00  0.00000000E+00
  0.00000000E+00  0.00000000E+00  0.00000000E+00
  0.00000000E+00  0.00000000E+00  0.00000000E+00
  0.00000000E+00  0.00000000E+00  0.00000000E+00
  0.00000000E+00  0.00000000E+00  0.00000000E+00
  0.00000000E+00  0.00000000E+00  0.00000000E+00
  0.00000000E+00  0.00000000E+00  0.00000000E+00
  0.00000000E+00  0.00000000E+00  0.00000000E+00
  0.00000000E+00  0.00000000E+00  0.00000000E+00
  0.00000000E+00  0.00000000E+00  0.00000000E+00
  0.00000000E+00  0.00000000E+00  0.00000000E+00
  0.00000000E+00  0.00000000E+00  0.00000000E+00
  0.00000000E+00  0.00000000E+00  0.00000000E+00
  0.00000000E+00  0.00000000E+00  0.00000000E+00
  0.00000000E+00  0.00000000E+00  0.00000000E+00
  0.00000000E+00  0.00000000E+00  0.00000000E+00
  0.00000000E+00  0.00000000E+00  0.00000000E+00
  0.00000000E+00  0.00000000E+00  0.00000000E+00
  0.00000000E+00  0.00000000E+00  0.00000000E+00
  0.00000000E+00  0.00000000E+00  0.00000000E+00
  0.00000000E+00  0.00000000E+00  0.00000000E+00
  0.00000000E+00  0.00000000E+00  0.00000000E+00
  0.00000000E+00  0.00000000E+00  0.00000000E+00
  0.00000000E+00  0.00000000E+00  0.00000000E+00
  0.00000000E+00  0.00000000E+00  0.00000000E+00
  0.00000000E+00  0.00000000E+00  0.00000000E+00
  0.00000000E+00  0.00000000E+00  0.00000000E+00
  0.00000000E+00  0.00000000E+00  0.00000000E+00
  0.00000000E+00  0.00000000E+00  0.00000000E+00
  0.00000000E+00  0.00000000E+00  0.00000000E+00
  0.00000000E+00  0.00000000E+00  0.00000000E+00
  0.00000000E+00  0.00000000E+00  0.00000000E+00
  0.00000000E+00  0.00000000E+00  0.00000000E+00
  0.00000000E+00  0.00000000E+00  0.00000000E+00
  0.00000000E+00  0.00000000E+00  0.00000000E+00
  0.00000000E+00  0.00000000E+00  0.00000000E+00
  0.00000000E+00  0.00000000E+00  0.00000000E+00
  0.00000000E+00  0.00000000E+00  0.00000000E+00
  0.00000000E+00  0.00000000E+00  0.00000000E+00
  0.00000000E+00  0.00000000E+00  0.00000000E+00
  0.00000000E+00  0.00000000E+00  0.00000000E+00
  0.00000000E+00  0.00000000E+00  0.00000000E+00
  0.00000000E+00  0.00000000E+00  0.00000000E+00
  0.00000000E+00  0.00000000E+00  0.00000000E+00
  0.00000000E+00  0.00000000E+00  0.00000000E+00
  0.00000000E+00  0.00000000E+00  0.00000000E+00
  0.00000000E+00  0.00000000E+00  0.00000000E+00
  0.00000000E+00  0.00000000E+00  0.00000000E+00
  0.00000000E+00  0.00000000E+00  0.00000000E+00
  0.00000000E+00  0.00000000E+00  0.00000000E+00
