Fe                                      
   1.00000000000000     
    10.3348470473793004    0.0000000000000000    0.0000000000000000
     0.0000000000000000   10.3348470473793004    0.0000000000000000
     0.0000000000000000    0.0000000000000000   10.3348470473793004
   Fe
   107
Direct
  1.0001839123912906  0.0000000604894294  0.0003472245637720
  0.9998750419385920  0.1662417055868038  0.1665416013553961
  0.0001941332511469  0.3344768242797398  1.0005713393989439
  0.0025759533864731  0.4999998975062697  0.1692423555837687
  0.0001940732597219  0.6655231138347550  1.0005712465250389
  0.9998750372722524  0.8337583067540519  0.1665416354106991
  0.0009022606535004  0.0000000384697573  0.3336324546355370
  0.0019444880732877  0.1692675718971850  0.5004644786284337
  1.0001515586884129  0.3334023623594911  0.3339173233048598
  0.0015017733364032  0.4999999726166846  0.5001247304808851
  1.0001515802545011  0.6665975574763657  0.3339173068827596
  0.0019445198142084  0.8307324496108675  0.5004643361472940
 -0.0013599738117934  0.0000000973722642  0.6667726227565234
  0.9999387710021748  0.1670797089007664  0.8334754796859902
  1.0013566587387359  0.3347803958279331  0.6669156528680514
  0.0016994639185825  0.4999999909022891  0.8327110361372724
  1.0013567420196825  0.6652195425928968  0.6669155204611190
  0.9999387273348828  0.8329202692794712  0.8334754798784153
  0.1669659688360944  0.0000000808216738  0.1675687363588341
  0.1666447931046417  0.1668410163023110  0.0007953978936312
  0.1666447733956344  0.8331589876280427  0.0007953454984246
  0.1698097764069382  0.3359326446167159  0.5006806230759741
  0.1669002469979511  0.4999999973546844  0.3335666885857866
  0.1698097830800606  0.6640673799185863  0.5006805702332188
  0.1665163051990824  0.0000001146328113  0.8332714656380495
  0.1706915930043012  0.4999998926329936  0.6646247150205842
  0.1672508763315168  0.3334023010310993  0.1668180838515737
  0.1672508060836307  0.6665976266672839  0.1668180179303883
  0.1662979041969392  0.1669496968198114  0.3329643807885675
  0.1662979297689914  0.8330503031294721  0.3329643771629378
  0.1664344115572530  0.1663962748544061  0.6668869773722985
  0.1668517094660362  0.3324769116173621  0.8338689474276161
  0.1668517396451425  0.6675230590738506  0.8338689750551090
  0.1664343078571962  0.8336038988971251  0.6668871126453687
  0.1695992908942332  0.4999999784772562  0.9963354862871501
  0.1657606521759056  0.0000000353184653  0.5004261400333549
  0.3334585323797984  0.0000000960624751  1.0016347425095169
  0.3337978848183556  0.1692674109026791  0.1686109833698187
  0.3337978532828602  0.8307326069052985  0.1686107703712045
  0.3340140339939891  0.3359323331819792  0.3364760290399357
  0.3340138780139135  0.6640678482775331  0.3364755375917154
  0.3332748974709735  0.1647222771708259  0.8358130093177732
  0.3331829631148975  0.3241061903645276  0.6690377920325363
  0.3331827368987853  0.6758938086509086  0.6690378193646090
  0.3332748931728458  0.8352777288626675  0.8358131036819652
  0.3335337127117132  0.3340724327313006 -0.0005556330061876
  0.3334582720915343  0.4999999274628620  0.1681682116120181
  0.3335337213669596  0.6659274602530310 -0.0005557368259414
  0.3337597154049633  0.0000000201696778  0.3324271740808289
  0.3328384219855352  0.1659947655519814  0.4995049140585928
  0.3328383727627554  0.8340051818379367  0.4995049350564734
  0.3336590428404179  0.0000000079990622  0.6669835397375057
  0.3365410244562176  0.4999998307731633  0.8286197316487106
  0.5001059185788571  0.0000000254684974  0.1653065629753648
  0.5000939143678576  0.1693599559928209  0.9984051992624492
  0.5002487186377937  0.3347807171369488  0.1680231072524059
  0.4999348426472254  0.4999999689128918  0.9982200103305278
  0.5002487234191652  0.6652192567663151  0.1680230307140065
  0.5000939213614704  0.8306400329365857  0.9984050765878342
  0.5003168566100935  0.0000000041555622  0.5003255187163340
  0.5002202253522067  0.1663962393054762  0.3331009434306670
  0.5023711326465721  0.3241063717391187  0.4998494981025569
  0.4979578267685183  0.4999999823518911  0.3373582084354892
  0.5023710489581124  0.6758936307100933  0.4998493944335041
  0.5002202037780153  0.8336037786425732  0.3331009246947521
  0.5004202150671885  0.0000000390831011  0.8349643591928226
  0.5014213667920338  0.1661391589502818  0.6680880349011344
  0.5005802371128788  0.3339676511209994  0.8327361569246673
  0.5005802191153930  0.6660323054777605  0.8327360836383105
  0.5014213260335002  0.8338608339000149  0.6680880528661974
  0.6669885602916770  0.3333235364516698  0.0006799293968140
  0.6660440489168212  0.4999999755658726  0.1683659654086255
  0.6669886107394505  0.6666764165103879  0.0006799014622043
  0.6666045271852278 -0.0000000151143599  0.3331827770848134
  0.6691461433814685  0.1647222621796662  0.4999415449607266
  0.6691461453926388  0.8352777481087976  0.4999415839966139
  0.6682975689572728  0.0000000370670153  0.6670869824256722
  0.6659778403243698  0.4999999814934308  0.8326446215970037
  0.6668086139415135  0.1670797738807686  0.1666053068201193
  0.6668086341204594  0.8329202320213919  0.1666052844472023
  0.6672020628781236  0.3324770934522408  0.3335182515544408
  0.6672020930325523  0.6675229276950760  0.3335182947643569
  0.6675001980284901  0.1667327347778911  0.8341671426645479
  0.6660695194071098  0.3339675121553978  0.6672471233768864
  0.6660695289182874  0.6660324665245866  0.6672469820118737
  0.6675002111682807  0.8332672858502719  0.8341670629893253
  0.6667258162926732  0.0000000373810006  0.9999604157786790
  0.6619528876277426  0.4999999845206563  0.5032077254737648
  0.8310350723424427  0.4999998758594255  0.9977016408130241
  0.8349678023681825  0.0000001161017945  0.5001250309398911
  0.8339045178404201  0.3344768982160196  0.1668606769907414
  0.8339045409961305  0.6655230437401357  0.1668605866394480
  0.8341286311224140  0.1668410362759040  0.3333112705780106
  0.8341286125842997  0.8331589722754449  0.3333112381871776
  0.8317383052561733  0.1693598779490347  0.6667606925829853
  0.8340132238523562  0.3333234514097440  0.8336554840504020
  0.8340132191718606  0.6666765109156725  0.8336554695539892
  0.8317383660557051  0.8306401158827312  0.6667605640305706
  0.8336804786138327  0.0000000476449180  0.1668504435964838
  0.8341000930348013  0.1666063955856219  0.0007668863941862
  0.8341000488955619  0.8333936399129118  0.0007669223128095
  0.8327775856197575  0.3340722652472665  0.5001998184276032
  0.8296687063090367  0.4999999691939488  0.3362657220702623
  0.8327776175371041  0.6659277345503245  0.5001997347151915
  0.8332935821437215  0.0000000558457312  0.8333926220086949
  0.8315533142592434  0.5000000089300388  0.6666014794923845
  0.3736378184790032  0.5000000485817103  0.5403046241145465
 
  0.00000000E+00  0.00000000E+00  0.00000000E+00
  0.00000000E+00  0.00000000E+00  0.00000000E+00
  0.00000000E+00  0.00000000E+00  0.00000000E+00
  0.00000000E+00  0.00000000E+00  0.00000000E+00
  0.00000000E+00  0.00000000E+00  0.00000000E+00
  0.00000000E+00  0.00000000E+00  0.00000000E+00
  0.00000000E+00  0.00000000E+00  0.00000000E+00
  0.00000000E+00  0.00000000E+00  0.00000000E+00
  0.00000000E+00  0.00000000E+00  0.00000000E+00
  0.00000000E+00  0.00000000E+00  0.00000000E+00
  0.00000000E+00  0.00000000E+00  0.00000000E+00
  0.00000000E+00  0.00000000E+00  0.00000000E+00
  0.00000000E+00  0.00000000E+00  0.00000000E+00
  0.00000000E+00  0.00000000E+00  0.00000000E+00
  0.00000000E+00  0.00000000E+00  0.00000000E+00
  0.00000000E+00  0.00000000E+00  0.00000000E+00
  0.00000000E+00  0.00000000E+00  0.00000000E+00
  0.00000000E+00  0.00000000E+00  0.00000000E+00
  0.00000000E+00  0.00000000E+00  0.00000000E+00
  0.00000000E+00  0.00000000E+00  0.00000000E+00
  0.00000000E+00  0.00000000E+00  0.00000000E+00
  0.00000000E+00  0.00000000E+00  0.00000000E+00
  0.00000000E+00  0.00000000E+00  0.00000000E+00
  0.00000000E+00  0.00000000E+00  0.00000000E+00
  0.00000000E+00  0.00000000E+00  0.00000000E+00
  0.00000000E+00  0.00000000E+00  0.00000000E+00
  0.00000000E+00  0.00000000E+00  0.00000000E+00
  0.00000000E+00  0.00000000E+00  0.00000000E+00
  0.00000000E+00  0.00000000E+00  0.00000000E+00
  0.00000000E+00  0.00000000E+00  0.00000000E+00
  0.00000000E+00  0.00000000E+00  0.00000000E+00
  0.00000000E+00  0.00000000E+00  0.00000000E+00
  0.00000000E+00  0.00000000E+00  0.00000000E+00
  0.00000000E+00  0.00000000E+00  0.00000000E+00
  0.00000000E+00  0.00000000E+00  0.00000000E+00
  0.00000000E+00  0.00000000E+00  0.00000000E+00
  0.00000000E+00  0.00000000E+00  0.00000000E+00
  0.00000000E+00  0.00000000E+00  0.00000000E+00
  0.00000000E+00  0.00000000E+00  0.00000000E+00
  0.00000000E+00  0.00000000E+00  0.00000000E+00
  0.00000000E+00  0.00000000E+00  0.00000000E+00
  0.00000000E+00  0.00000000E+00  0.00000000E+00
  0.00000000E+00  0.00000000E+00  0.00000000E+00
  0.00000000E+00  0.00000000E+00  0.00000000E+00
  0.00000000E+00  0.00000000E+00  0.00000000E+00
  0.00000000E+00  0.00000000E+00  0.00000000E+00
  0.00000000E+00  0.00000000E+00  0.00000000E+00
  0.00000000E+00  0.00000000E+00  0.00000000E+00
  0.00000000E+00  0.00000000E+00  0.00000000E+00
  0.00000000E+00  0.00000000E+00  0.00000000E+00
  0.00000000E+00  0.00000000E+00  0.00000000E+00
  0.00000000E+00  0.00000000E+00  0.00000000E+00
  0.00000000E+00  0.00000000E+00  0.00000000E+00
  0.00000000E+00  0.00000000E+00  0.00000000E+00
  0.00000000E+00  0.00000000E+00  0.00000000E+00
  0.00000000E+00  0.00000000E+00  0.00000000E+00
  0.00000000E+00  0.00000000E+00  0.00000000E+00
  0.00000000E+00  0.00000000E+00  0.00000000E+00
  0.00000000E+00  0.00000000E+00  0.00000000E+00
  0.00000000E+00  0.00000000E+00  0.00000000E+00
  0.00000000E+00  0.00000000E+00  0.00000000E+00
  0.00000000E+00  0.00000000E+00  0.00000000E+00
  0.00000000E+00  0.00000000E+00  0.00000000E+00
  0.00000000E+00  0.00000000E+00  0.00000000E+00
  0.00000000E+00  0.00000000E+00  0.00000000E+00
  0.00000000E+00  0.00000000E+00  0.00000000E+00
  0.00000000E+00  0.00000000E+00  0.00000000E+00
  0.00000000E+00  0.00000000E+00  0.00000000E+00
  0.00000000E+00  0.00000000E+00  0.00000000E+00
  0.00000000E+00  0.00000000E+00  0.00000000E+00
  0.00000000E+00  0.00000000E+00  0.00000000E+00
  0.00000000E+00  0.00000000E+00  0.00000000E+00
  0.00000000E+00  0.00000000E+00  0.00000000E+00
  0.00000000E+00  0.00000000E+00  0.00000000E+00
  0.00000000E+00  0.00000000E+00  0.00000000E+00
  0.00000000E+00  0.00000000E+00  0.00000000E+00
  0.00000000E+00  0.00000000E+00  0.00000000E+00
  0.00000000E+00  0.00000000E+00  0.00000000E+00
  0.00000000E+00  0.00000000E+00  0.00000000E+00
  0.00000000E+00  0.00000000E+00  0.00000000E+00
  0.00000000E+00  0.00000000E+00  0.00000000E+00
  0.00000000E+00  0.00000000E+00  0.00000000E+00
  0.00000000E+00  0.00000000E+00  0.00000000E+00
  0.00000000E+00  0.00000000E+00  0.00000000E+00
  0.00000000E+00  0.00000000E+00  0.00000000E+00
  0.00000000E+00  0.00000000E+00  0.00000000E+00
  0.00000000E+00  0.00000000E+00  0.00000000E+00
  0.00000000E+00  0.00000000E+00  0.00000000E+00
  0.00000000E+00  0.00000000E+00  0.00000000E+00
  0.00000000E+00  0.00000000E+00  0.00000000E+00
  0.00000000E+00  0.00000000E+00  0.00000000E+00
  0.00000000E+00  0.00000000E+00  0.00000000E+00
  0.00000000E+00  0.00000000E+00  0.00000000E+00
  0.00000000E+00  0.00000000E+00  0.00000000E+00
  0.00000000E+00  0.00000000E+00  0.00000000E+00
  0.00000000E+00  0.00000000E+00  0.00000000E+00
  0.00000000E+00  0.00000000E+00  0.00000000E+00
  0.00000000E+00  0.00000000E+00  0.00000000E+00
  0.00000000E+00  0.00000000E+00  0.00000000E+00
  0.00000000E+00  0.00000000E+00  0.00000000E+00
  0.00000000E+00  0.00000000E+00  0.00000000E+00
  0.00000000E+00  0.00000000E+00  0.00000000E+00
  0.00000000E+00  0.00000000E+00  0.00000000E+00
  0.00000000E+00  0.00000000E+00  0.00000000E+00
  0.00000000E+00  0.00000000E+00  0.00000000E+00
  0.00000000E+00  0.00000000E+00  0.00000000E+00
  0.00000000E+00  0.00000000E+00  0.00000000E+00
