Fe
   1.00000000000000     
  10.3348470473793004   0.0000000000000000   0.0000000000000000
   0.0000000000000000  10.3348470473793004   0.0000000000000000
   0.0000000000000000   0.0000000000000000  10.3348470473793004
Fe
107  
Direct
  0.9999580580045520  0.0000007350082072  0.0001243393025874  
  0.9999362600464680  0.1664800234901020  0.1666051338436460  
  0.0000479027124456  0.3337669216439850  0.9998548311871150  
  0.0004982068994863  0.4999992670326210  0.1671665591691610  
  0.0000478258581467  0.6662323693963830  0.9998548018746760  
  0.9999362271619320  0.8335206912902540  0.1666052102887930  
  0.0000477752434023  0.0000007068488088  0.3333183624491200  
  0.0004981871441458  0.1673112118857030  0.5003245533797060  
  0.9999715901392110  0.3336231360428530  0.3334442431169360  
  0.0004588463035589  0.4999992366073300  0.5003426889956800  
  0.9999715302257710  0.6663762009989970  0.3334442667832320  
  0.0004982507736031  0.8326894859839480  0.5003245140729859  
  0.0000478357969058  0.0000007021866679  0.6665568854225939  
  0.9999362956963860  0.1667497167511700  0.8330701909742469  
  0.9999716946237380  0.3336405086989560  0.6667006711324820  
  0.0004983521724924  0.4999992189277550  0.8324905867713780  
  0.9999716905443140  0.6663588207955300  0.6667006073926200  
  0.9999363010213290  0.8332510516287140  0.8330701411287790  
  0.1666518999261300  0.0000007418851737  0.1667166150415160  
  0.1665869863636760  0.1665266689305580  0.0001895228173225  
  0.1665869737252520  0.8334741817156370  0.0001894966837668  
  0.1668282754592240  0.3334695504618780  0.4998933286295820  
  0.1684077826869200  0.4999995230855840  0.3350741474171170  
  0.1668281618611620  0.6665298627184630  0.4998932791523810  
  0.1669216444715640  0.0000006816971592  0.8329586138562280  
  0.1682898540960240  0.4999991644942700  0.6664219143851750  
  0.1667777593224290  0.3336228245516180  0.1666402730716500  
  0.1667777365976450  0.6663764636578190  0.1666403204345600  
  0.1664433550156940  0.1664504775360240  0.3331091540478750  
  0.1664433378597320  0.8335503042622180  0.3331092494942500  
  0.1681268638313040  0.1681338436997140  0.6667003196815600  
  0.1665490262668210  0.3331906883255730  0.8334659455738280  
  0.1665489194497380  0.6668086838809020  0.8334659257087010  
  0.1681268321252820  0.8318669906190340  0.6667001832863590  
  0.1682784644739070  0.4999992084571970  0.9985034764312180  
  0.1669276718084450  0.0000006346618733  0.5003246327568430  
  0.3336603683612510  0.0000007346523105  0.9998547772812640  
  0.3336604133930050  0.1673107544844900  0.1671662466233100  
  0.3336604068578240  0.8326900411569370  0.1671662248721620  
  0.3332278028993020  0.3334696948936510  0.3334942179692040  
  0.3332276896759720  0.6665296293549690  0.3334941057440730  
  0.3332283800098280  0.1670820464531180  0.8329399740855190  
  0.3340640546594220  0.3343049281639590  0.6664243212864850  
  0.3340629382562950  0.6656944975779880  0.6664244810404090  
  0.3332282712589740  0.8329189001690980  0.8329399638788080  
  0.3332285354877700  0.3333409134052450  0.0000835351829380  
  0.3336779536723360  0.4999991903370710  0.1671274761282580  
  0.3332285190317630  0.6666584039958470  0.0000836179246164  
  0.3336604315214800  0.0000007307158114  0.3335939873007310  
  0.3332285027966080  0.1670435119908330  0.4998936097786030  
  0.3332283042182030  0.8329574150092610  0.4998935575899780  
  0.3336778037373380  0.0000006807465098  0.6665509782124630  
  0.3340648373618290  0.4999991182026090  0.8321406775681131  
  0.4998922857991840  0.0000007432808573  0.1667165161044300  
  0.4998921760033640  0.1682120702350010  0.9985034402944990  
  0.5000359369816320  0.3336405551850210  0.1666402173107850  
  0.4998862267356610  0.4999991318140720  0.9986222028372320  
  0.5000359743078210  0.6663587402201900  0.1666401772957540  
  0.4998922621054120  0.8317887805504180  0.9985033503547170  
  0.4998862481695670  0.0000006655328662  0.5003427454275170  
  0.5000358902324040  0.1681357419752420  0.3347956170737660  
  0.4997574781806480  0.3343054047737300  0.5007312122113420  
  0.4997565635851590  0.4999992911212910  0.3349565395707050  
  0.4997579390057890  0.6656928612079870  0.5007310429122570  
  0.5000359378439040  0.8318651030099180  0.3347955100281510  
  0.4998922311556840  0.0000006889173108  0.8329405421393330  
  0.5000359099339140  0.1680177289402850  0.6667006898130410  
  0.5000366424869110  0.3340266427439500  0.8326281146092140  
  0.5000366484556200  0.6659726939215180  0.8326283243246880  
  0.5000358995310850  0.8319833949841350  0.6667006659715040  
  0.6667234808781261  0.3333351924427180  0.0000836125395196  
  0.6658237282803300  0.4999992211821650  0.1671665821522550  
  0.6667235760449230  0.6666642258441090  0.0000837349250986  
  0.6662917181236310  0.0000006408475883  0.3335881538454900  
  0.6662732497790170  0.1670823659861470  0.4998935924675580  
  0.6662732622905170  0.8329181580564859  0.4998934569862210  
  0.6662742981018110  0.0000006416351681  0.6665567106053770  
  0.6654365972545760  0.4999990862850860  0.8321012626360300  
  0.6664035190537310  0.1667495512839280  0.1666050902772080  
  0.6664035464715000  0.8332511858178440  0.1666050428184320  
  0.6667995835322170  0.3331913662192750  0.3332158197479560  
  0.6667997509551991  0.6668080157983880  0.3332156220043030  
  0.6668355067434391  0.1665208433734410  0.8335010693155740  
  0.6659642374470990  0.3340264059566780  0.6667031229601150  
  0.6659645197050570  0.6659729300576560  0.6667031470268940  
  0.6668355961955470  0.8334800946791320  0.8335012244631270  
  0.6663815337710300  0.0000006402588610  0.9998548169808640  
  0.6654767549372170  0.4999982757893310  0.5007311996540270  
  0.8318352127637350  0.4999992819800310  0.9985034999112510  
  0.8331860015339320  0.0000006527572722  0.5003245496575700  
  0.8331862318611700  0.3337668441055900  0.1667165726598090  
  0.8331862178493880  0.6662324827897450  0.1667165760364000  
  0.8335206575364960  0.1665266471003620  0.3332531826215190  
  0.8335206109570090  0.8334740672599570  0.3332532344863710  
  0.8318371708784720  0.1682099717870930  0.6665561792661090  
  0.8334149988662030  0.3333346378149430  0.8333896912462820  
  0.8334151200592640  0.6666647219377350  0.8333897709651480  
  0.8318371739902940  0.8317908178694750  0.6665560518806120  
  0.8334557380736100  0.0000007065346210  0.1666268626524710  
  0.8335207107722910  0.1664367776135900  0.0001895600882165  
  0.8335206422046260  0.8335639850922190  0.0001895791800237  
  0.8334149096566750  0.3333407294536880  0.4998935086909600  
  0.8318354320271690  0.4999992987488540  0.3349451840415010  
  0.8334151033490970  0.6666586440345840  0.4998933954062890  
  0.8331860339243280  0.0000006974890923  0.8330484365619810  
  0.8319534797607701  0.4999991528496540  0.6665508168421820  
  0.3754894894486820  0.4999991116852980  0.5421541396476430  
