Ni                                      
   1.00000000000000     
     3.4497786278731666    0.0000000000000000   -0.0000000000000000
     0.0000000000000000    3.4497786278731666    0.0000000000000000
    -0.0000000000000000    0.0000000000000000    3.4497786278731666
   Fe
     4
Direct
 -0.0000000000000000 -0.0000000000000000 -0.0000000000000000
 -0.0000000000000000  0.5000000000000000  0.5000000000000000
  0.5000000000000000 -0.0000000000000000  0.5000000000000000
  0.5000000000000000  0.5000000000000000  0.0000000000000000
 
  0.00000000E+00  0.00000000E+00  0.00000000E+00
  0.00000000E+00  0.00000000E+00  0.00000000E+00
  0.00000000E+00  0.00000000E+00  0.00000000E+00
  0.00000000E+00  0.00000000E+00  0.00000000E+00
